time,H_1,H_2,H_3,cry_1,cry_2,cry_3,disloc_density,disp_x,disp_y,disp_z,fp_yy,gd_0,gd_1,gd_10,gd_11,gd_12,gd_13,gd_14,gd_15,gd_16,gd_17,gd_18,gd_19,gd_2,gd_20,gd_21,gd_22,gd_23,gd_24,gd_25,gd_26,gd_27,gd_28,gd_29,gd_3,gd_30,gd_31,gd_32,gd_33,gd_34,gd_35,gd_36,gd_37,gd_38,gd_39,gd_4,gd_40,gd_41,gd_42,gd_43,gd_44,gd_45,gd_46,gd_47,gd_5,gd_6,gd_7,gd_8,gd_9,slip_increment_0,slip_increment_1,slip_increment_10,slip_increment_11,slip_increment_12,slip_increment_13,slip_increment_14,slip_increment_15,slip_increment_16,slip_increment_17,slip_increment_18,slip_increment_19,slip_increment_2,slip_increment_20,slip_increment_21,slip_increment_22,slip_increment_23,slip_increment_24,slip_increment_25,slip_increment_26,slip_increment_27,slip_increment_28,slip_increment_29,slip_increment_3,slip_increment_30,slip_increment_31,slip_increment_32,slip_increment_33,slip_increment_34,slip_increment_35,slip_increment_36,slip_increment_37,slip_increment_38,slip_increment_39,slip_increment_4,slip_increment_40,slip_increment_41,slip_increment_42,slip_increment_43,slip_increment_44,slip_increment_45,slip_increment_46,slip_increment_47,slip_increment_5,slip_increment_6,slip_increment_7,slip_increment_8,slip_increment_9,slip_resistance_0,slip_resistance_1,slip_resistance_10,slip_resistance_11,slip_resistance_12,slip_resistance_13,slip_resistance_14,slip_resistance_15,slip_resistance_16,slip_resistance_17,slip_resistance_18,slip_resistance_19,slip_resistance_2,slip_resistance_20,slip_resistance_21,slip_resistance_22,slip_resistance_23,slip_resistance_24,slip_resistance_25,slip_resistance_26,slip_resistance_27,slip_resistance_28,slip_resistance_29,slip_resistance_3,slip_resistance_30,slip_resistance_31,slip_resistance_32,slip_resistance_33,slip_resistance_34,slip_resistance_35,slip_resistance_36,slip_resistance_37,slip_resistance_38,slip_resistance_39,slip_resistance_4,slip_resistance_40,slip_resistance_41,slip_resistance_42,slip_resistance_43,slip_resistance_44,slip_resistance_45,slip_resistance_46,slip_resistance_47,slip_resistance_5,slip_resistance_6,slip_resistance_7,slip_resistance_8,slip_resistance_9,sliprate,strain_eff,strain_yy,stress_vm,stress_xx,stress_yy,stress_zz,total_twin_volume_fraction
3.125e-07,807026292.38622,808483630.27088,809378966.23178,0.062463104089687,0.64760436919854,-0.22576307227148,20000000,1.795247758008e-08,9.3040977766007e-08,1.6614703172678e-08,1,498.11453243724,498.11453243724,500.06662160818,500.06662160818,496.27017986133,497.45621499149,498.49272632961,499.2377704451,497.3949679165,498.31926864121,499.82798739703,499.8830500557,498.77887462816,496.53649215281,497.95958958703,497.9840030614,498.50619546344,496.43059188524,497.2401338905,499.19304378488,499.6274505402,497.19723547356,497.8945452062,498.77887462816,500.04721055474,500.18759614141,496.2889283716,497.71952660535,497.76569140765,498.81528832547,497.64792278469,498.6301208808,499.49351442861,499.35172645875,496.73128002803,496.36751669005,497.9042026932,497.51270986936,498.46915682139,496.95905911562,498.16281796266,498.3899890009,498.44072908787,496.73128002803,498.17949043326,498.17949043326,497.06326618462,497.06326618462,7.5247739688425e-41,6.7542812949798e-45,-1.6796268580604e-46,2.4318239269747e-42,3.6774191240788e-45,-6.1567943400782e-40,-1.067869594883e-40,-4.2170897653524e-47,6.0342208246735e-44,-1.9239654232262e-44,1.1828123454943e-42,1.4512116999424e-44,5.4024119097029e-42,5.3391264282867e-40,6.0338335926401e-43,-2.4148203798034e-43,1.295028853061e-43,5.3606849778569e-45,-2.8430500132047e-40,-4.1918578764481e-41,-2.9513217142892e-49,5.587340325822e-45,-3.1599801516492e-45,-5.1062409949336e-43,1.3564902366002e-43,2.2081555473959e-44,1.2336052319082e-45,-6.801704301052e-40,-1.5359119443396e-40,-7.8818420635753e-46,5.2750482771335e-44,-1.8967455569843e-44,4.1875453044177e-42,8.6667398105046e-43,-8.3654166413439e-47,2.8130947896541e-40,2.6815916896327e-43,-3.8216616662873e-44,4.2065274064681e-42,4.9441511464008e-40,1.5785642568886e-43,-6.4615328411928e-43,1.0426171613807e-45,-4.7757740901475e-41,-1.9370898106673e-44,1.6696739628944e-40,1.9835681761405e-45,-1.1984293644681e-41,622.63706140527,622.63706140527,624.58915057622,624.58915057622,620.79270882936,621.97874395953,623.01525529765,623.76029941314,621.91749688454,622.84179760925,624.35051636507,624.40557902374,623.30140359619,621.05902112085,622.48211855507,622.50653202943,623.02872443148,620.95312085328,621.76266285853,623.71557275292,624.14997950824,621.71976444159,622.41707417424,623.30140359619,624.56973952277,624.71012510945,620.81145733964,622.24205557339,622.28822037568,623.3378172935,622.17045175273,623.15264984883,624.01604339665,623.87425542679,621.25380899607,620.89004565808,622.42673166124,622.03523883739,622.99168578943,621.48158808366,622.68534693069,622.91251796894,622.96325805591,621.25380899607,622.7020194013,622.7020194013,621.58579515266,621.58579515266,0,3.6116065422401e-05,3.1249491906874e-05,7.4224815977622,-1.3613215323188e-06,7.3420077960544,-1.194118332379e-06,0
9.375e-07,807026292.38622,808483630.27088,809378966.23178,0.062463104089687,0.64760436919854,-0.22576307227148,20000000,5.0514637521384e-08,2.7912290859363e-07,4.8565292430873e-08,1,498.11453243724,498.11453243724,500.06662160818,500.06662160818,496.27017986133,497.45621499149,498.49272632961,499.2377704451,497.3949679165,498.31926864121,499.82798739703,499.8830500557,498.77887462816,496.53649215281,497.95958958703,497.9840030614,498.50619546344,496.43059188524,497.2401338905,499.19304378488,499.6274505402,497.19723547356,497.8945452062,498.77887462816,500.04721055474,500.18759614141,496.2889283716,497.71952660535,497.76569140765,498.81528832547,497.64792278469,498.6301208808,499.49351442861,499.35172645875,496.73128002803,496.36751669005,497.9042026932,497.51270986936,498.46915682139,496.95905911562,498.16281796266,498.3899890009,498.44072908787,496.73128002803,498.17949043326,498.17949043326,497.06326618462,497.06326618462,2.6255951345012e-31,2.3567056905677e-35,-5.8653467834045e-37,8.4868819963513e-33,1.2832545143796e-35,-2.1488397014937e-30,-3.7262599612864e-31,-1.4724866730354e-37,2.1059822476105e-34,-6.7197283038831e-35,4.1278995009587e-33,5.0632564557218e-35,1.884693692145e-32,1.8630263534775e-30,2.1057887390047e-33,-8.4324073650627e-34,4.5181006966346e-34,1.8705929647123e-35,-9.9236524527957e-31,-1.4628495567518e-31,-1.0317040826476e-39,1.9466117520563e-35,-1.1036673211226e-35,-1.7821630615461e-33,4.7347943688729e-34,7.7067215751826e-35,4.3048240220516e-36,-2.3737364498942e-30,-5.3588615464072e-31,-2.7516210723051e-36,1.8408728379256e-34,-6.6348864295331e-35,1.4612095095002e-32,3.0239250568601e-33,-2.9243700680146e-37,9.8161743834805e-31,9.3585151788701e-34,-1.3347694794723e-34,1.4677049777569e-32,1.7251849458154e-30,5.5202881144947e-34,-2.2559338433996e-33,3.6369041437443e-36,-1.6657237807943e-31,-6.7610612454925e-35,5.8263213699687e-31,6.9213966772678e-36,-4.1838137325927e-32,622.63706140527,622.63706140527,624.58915057622,624.58915057622,620.79270882936,621.97874395953,623.01525529765,623.76029941314,621.91749688454,622.84179760925,624.35051636507,624.40557902374,623.30140359619,621.05902112085,622.48211855507,622.50653202943,623.02872443148,620.95312085327,621.76266285853,623.71557275292,624.14997950824,621.71976444159,622.41707417424,623.30140359619,624.56973952277,624.71012510945,620.81145733964,622.24205557338,622.28822037568,623.3378172935,622.17045175273,623.15264984883,624.01604339665,623.87425542679,621.25380899607,620.89004565808,622.42673166124,622.03523883739,622.99168578943,621.48158808366,622.68534693069,622.91251796894,622.96325805591,621.25380899607,622.7020194013,622.7020194013,621.58579515266,621.58579515266,2.2868633595938e-36,0.00010834646514264,9.3745427380439e-05,22.270461523758,-1.2256974543319e-05,22.029056488232,-1.080586768778e-05,0
