time,H_1,H_2,H_3,cry_1,cry_2,cry_3,disloc_density,disp_x,disp_y,disp_z,fp_yy,gd_0,gd_1,gd_10,gd_11,gd_12,gd_13,gd_14,gd_15,gd_16,gd_17,gd_18,gd_19,gd_2,gd_20,gd_21,gd_22,gd_23,gd_24,gd_25,gd_26,gd_27,gd_28,gd_29,gd_3,gd_30,gd_31,gd_32,gd_33,gd_34,gd_35,gd_36,gd_37,gd_38,gd_39,gd_4,gd_40,gd_41,gd_42,gd_43,gd_44,gd_45,gd_46,gd_47,gd_5,gd_6,gd_7,gd_8,gd_9,slip_increment_0,slip_increment_1,slip_increment_10,slip_increment_11,slip_increment_12,slip_increment_13,slip_increment_14,slip_increment_15,slip_increment_16,slip_increment_17,slip_increment_18,slip_increment_19,slip_increment_2,slip_increment_20,slip_increment_21,slip_increment_22,slip_increment_23,slip_increment_24,slip_increment_25,slip_increment_26,slip_increment_27,slip_increment_28,slip_increment_29,slip_increment_3,slip_increment_30,slip_increment_31,slip_increment_32,slip_increment_33,slip_increment_34,slip_increment_35,slip_increment_36,slip_increment_37,slip_increment_38,slip_increment_39,slip_increment_4,slip_increment_40,slip_increment_41,slip_increment_42,slip_increment_43,slip_increment_44,slip_increment_45,slip_increment_46,slip_increment_47,slip_increment_5,slip_increment_6,slip_increment_7,slip_increment_8,slip_increment_9,slip_resistance_0,slip_resistance_1,slip_resistance_10,slip_resistance_11,slip_resistance_12,slip_resistance_13,slip_resistance_14,slip_resistance_15,slip_resistance_16,slip_resistance_17,slip_resistance_18,slip_resistance_19,slip_resistance_2,slip_resistance_20,slip_resistance_21,slip_resistance_22,slip_resistance_23,slip_resistance_24,slip_resistance_25,slip_resistance_26,slip_resistance_27,slip_resistance_28,slip_resistance_29,slip_resistance_3,slip_resistance_30,slip_resistance_31,slip_resistance_32,slip_resistance_33,slip_resistance_34,slip_resistance_35,slip_resistance_36,slip_resistance_37,slip_resistance_38,slip_resistance_39,slip_resistance_4,slip_resistance_40,slip_resistance_41,slip_resistance_42,slip_resistance_43,slip_resistance_44,slip_resistance_45,slip_resistance_46,slip_resistance_47,slip_resistance_5,slip_resistance_6,slip_resistance_7,slip_resistance_8,slip_resistance_9,sliprate,strain_yy,stress_vm,stress_xx,stress_yy,stress_zz,total_twin_volume_fraction
3.125e-07,807433653.1171,807420544.84069,810034690.9311,0.062463104089687,0.64760436919854,-0.22576307227148,20000000,1.7952477580083e-08,9.3040977766006e-08,1.6614703172676e-08,1,497.71852367714,497.71852367714,497.676103932,497.676103932,498.37342981382,497.94607570872,498.98058616352,498.32437317694,496.82887118017,496.81221922911,497.56316442057,497.03867019213,498.09443496959,499.01094921262,498.72210064497,499.49616666203,498.73366094176,497.78657615426,497.53641899211,498.51509040797,498.06490093174,496.73903878154,496.66734671787,498.09443496959,497.51777528772,497.12292664415,498.93678467932,498.34181421574,499.35261281231,498.56394853381,497.06374552569,497.16066687231,497.70082422432,497.14338129279,499.63583823055,499.37189892041,498.84381511713,499.73474117004,498.90867394553,498.55465282091,498.52787602336,499.07773742837,498.42793462912,499.63583823055,498.83886547141,498.83886547141,496.95192256058,496.95192256058,7.6091517358083e-41,7.4059073981126e-45,-1.6925200448206e-46,2.568418811331e-42,3.3541928402826e-45,-6.078201465567e-40,-9.0100541834371e-41,-4.5989686695998e-47,5.547149831084e-44,-2.7477174210422e-44,9.8098721696942e-43,1.7332288483754e-44,4.9314873376851e-42,4.7018073788556e-40,5.7649792202402e-43,-2.0336525371031e-43,1.1680053645537e-43,5.0882018212602e-45,-2.5737567923412e-40,-3.7839902534185e-41,-3.33399848974e-49,1.6876720991204e-45,-3.9843065189289e-45,-4.1695695848366e-43,1.1694331582422e-43,2.6522205235333e-44,1.066810586019e-45,-7.2901498164152e-40,-1.2383329072778e-40,-1.0442874588899e-45,5.21976243515e-44,-5.1101959660272e-44,3.4804454863406e-42,9.8549488291807e-43,-7.4361705994209e-47,2.4460060148048e-40,2.7467088503536e-43,-3.2145476969736e-44,4.1944225249937e-42,4.5091929401433e-40,9.037544821916e-44,-5.4971746852517e-43,8.9683419576252e-46,-3.668217758732e-41,-2.8900424547465e-44,1.8716479210583e-40,1.9162498265728e-45,-1.0261937214061e-41,622.24105264518,622.24105264518,622.19863290003,622.19863290003,622.89595878186,622.46860467676,623.50311513155,622.84690214498,621.3514001482,621.33474819714,622.08569338861,621.56119916016,622.61696393763,623.53347818066,623.24462961301,624.01869563006,623.2561899098,622.30910512229,622.05894796014,623.037619376,622.58742989977,621.26156774957,621.1898756859,622.61696393763,622.04030425576,621.64545561219,623.45931364736,622.86434318377,623.87514178034,623.08647750185,621.58627449373,621.68319584035,622.22335319235,621.66591026082,624.15836719858,623.89442788844,623.36634408516,624.25727013807,623.43120291357,623.07718178894,623.05040499139,623.60026639641,622.95046359715,624.15836719858,623.36139443945,623.36139443945,621.47445152862,621.47445152862,0,3.1249491906874e-05,7.4224815977624,-1.3613217795827e-06,7.3420077960542,-1.1941188448906e-06,0
9.375e-07,807433653.1171,807420544.84069,810034690.9311,0.062463104089687,0.64760436919854,-0.22576307227148,20000000,5.3504698312509e-08,2.7912290859115e-07,4.9365919406881e-08,1,497.71852367714,497.71852367714,497.676103932,497.676103932,498.37342981382,497.94607570872,498.98058616352,498.32437317694,496.82887118017,496.81221922911,497.56316442057,497.03867019213,498.09443496959,499.01094921262,498.72210064497,499.49616666203,498.73366094176,497.78657615426,497.53641899211,498.51509040797,498.06490093174,496.73903878154,496.66734671787,498.09443496959,497.51777528772,497.12292664415,498.93678467932,498.34181421574,499.35261281231,498.56394853381,497.06374552569,497.16066687231,497.70082422432,497.14338129279,499.63583823055,499.37189892041,498.84381511713,499.73474117004,498.90867394553,498.55465282091,498.52787602336,499.07773742837,498.42793462912,499.63583823055,498.83886547141,498.83886547141,496.95192256058,496.95192256058,2.6550302934725e-31,2.5840710053209e-35,-5.9103375327169e-37,8.9635763581113e-33,1.1704745054148e-35,-2.1213358793084e-30,-3.1440908731991e-31,-1.6058215758757e-37,1.9359918408432e-34,-9.5963113591823e-35,3.4235502372574e-33,6.0472021317715e-35,1.7204044219315e-32,1.6406341375499e-30,2.0120024548391e-33,-7.1014074708281e-34,4.0749230057066e-34,1.7755660760449e-35,-8.9833523128304e-31,-1.3205345194287e-31,-1.1652808921247e-39,5.8555933305093e-36,-1.3915630685588e-35,-1.4552077220912e-33,4.0818773610395e-34,9.2565915678264e-35,3.7227428649298e-36,-2.5441409057347e-30,-4.3207549272092e-31,-3.6456881387482e-36,1.8215796461369e-34,-1.7854870446153e-34,1.2144731476966e-32,3.4385021958593e-33,-2.5994315841361e-37,8.535218028928e-31,9.5857972445025e-34,-1.122727034655e-34,1.4634804149267e-32,1.5734055679566e-30,3.1666928015542e-34,-1.9192526581634e-33,3.1283516254068e-36,-1.279447269773e-31,-1.0087219901522e-34,6.5310879971843e-31,6.6868437776869e-36,-3.5824684264988e-32,622.24105264518,622.24105264518,622.19863290003,622.19863290003,622.89595878186,622.46860467676,623.50311513155,622.84690214498,621.3514001482,621.33474819714,622.08569338861,621.56119916016,622.61696393763,623.53347818065,623.24462961301,624.01869563006,623.2561899098,622.30910512229,622.05894796014,623.037619376,622.58742989977,621.26156774957,621.1898756859,622.61696393763,622.04030425576,621.64545561219,623.45931364736,622.86434318377,623.87514178034,623.08647750185,621.58627449373,621.68319584035,622.22335319235,621.66591026082,624.15836719858,623.89442788844,623.36634408516,624.25727013807,623.43120291356,623.07718178894,623.05040499139,623.60026639641,622.95046359715,624.15836719858,623.36139443944,623.36139443944,621.47445152862,621.47445152862,3.0011744624405e-36,9.3745427380438e-05,22.270461532735,-1.2277202555239e-05,22.029056494395,-1.0793852607073e-05,0
2.1875e-06,807433653.1171,807420544.84069,810034690.9311,0.062463104089687,0.64760436919854,-0.22576307227148,20000000,1.2271741040885e-07,6.5128667072184e-07,1.1027062800741e-07,1,497.71852367714,497.71852367714,497.676103932,497.676103932,498.37342981382,497.94607570872,498.98058616352,498.32437317694,496.82887118017,496.81221922911,497.56316442057,497.03867019212,498.09443496959,499.01094921262,498.72210064497,499.49616666203,498.73366094176,497.78657615426,497.53641899211,498.51509040797,498.06490093174,496.73903878154,496.66734671787,498.09443496959,497.51777528772,497.12292664415,498.93678467932,498.34181421574,499.35261281231,498.56394853381,497.06374552569,497.16066687231,497.70082422432,497.14338129279,499.63583823055,499.37189892041,498.84381511713,499.73474117004,498.90867394553,498.55465282091,498.52787602336,499.07773742837,498.42793462912,499.63583823055,498.83886547141,498.83886547141,496.95192256058,496.95192256058,6.0844491649534e-24,5.9216423459388e-28,-1.3566093348249e-29,2.0549327279316e-25,2.6828443137325e-28,-4.8636644527973e-23,-7.2063602836168e-24,-3.6851549900755e-30,4.4387053137258e-27,-2.2032017237597e-27,7.8485448194419e-26,1.3855970390098e-27,3.9411377937879e-25,3.7600266096223e-23,4.6129083387562e-26,-1.6299152957875e-26,9.3358596832394e-27,4.0697477987664e-28,-2.0599928331627e-23,-3.0271552659676e-24,-2.6794408747407e-32,1.3267197842231e-28,-3.1951310415345e-28,-3.3363977765002e-26,9.3608382743942e-27,2.1223606627016e-27,8.5329686225482e-29,-5.832249457722e-23,-9.9012412320317e-24,-8.3634065650858e-29,4.1756925097579e-27,-4.102792697675e-27,2.7834269465352e-25,7.8792425791904e-26,-5.9788882050131e-30,1.9562041152109e-23,2.197578522297e-26,-2.5779112245506e-27,3.3535290265506e-25,3.6058673980025e-23,7.3176394767377e-27,-4.403547425284e-26,7.1648686941402e-29,-2.9298314553307e-24,-2.3130809832715e-27,1.4969037575313e-23,1.5326567232032e-28,-8.2181432375315e-25,622.24105264518,622.24105264518,622.19863290003,622.19863290003,622.89595878186,622.46860467676,623.50311513155,622.84690214498,621.3514001482,621.33474819714,622.08569338861,621.56119916016,622.61696393763,623.53347818065,623.24462961301,624.01869563006,623.2561899098,622.30910512229,622.05894796014,623.037619376,622.58742989977,621.26156774957,621.1898756859,622.61696393763,622.04030425576,621.64545561219,623.45931364736,622.86434318377,623.87514178034,623.08647750185,621.58627449373,621.68319584035,622.22335319235,621.66591026082,624.15836719858,623.89442788844,623.36634408516,624.25727013807,623.43120291357,623.07718178894,623.05040499139,623.60026639641,622.95046359715,624.15836719858,623.36139443944,623.36139443944,621.47445152862,621.47445152862,1.0473535978982e-26,0.00021872510593618,51.978491016811,-6.6909818634808e-05,51.415288899326,-5.8767621617362e-05,0
4.6875e-06,807433653.1171,807420544.84069,810034690.9311,0.062463104089687,0.64760436919854,-0.22576307227148,20000000,2.5334448255754e-07,1.39561380972e-06,2.2511691267732e-07,1,497.71852367714,497.71852367714,497.676103932,497.676103932,498.37342981382,497.94607570872,498.98058616352,498.32437317694,496.82887118017,496.81221922911,497.56316442057,497.03867019213,498.09443496959,499.01094921262,498.72210064497,499.49616666203,498.73366094176,497.78657615426,497.53641899211,498.51509040797,498.06490093174,496.73903878154,496.66734671787,498.09443496959,497.51777528772,497.12292664415,498.93678467932,498.34181421574,499.35261281231,498.56394853381,497.06374552569,497.16066687231,497.70082422432,497.14338129279,499.63583823055,499.37189892041,498.84381511713,499.73474117004,498.90867394553,498.55465282091,498.52787602336,499.07773742837,498.42793462912,499.63583823055,498.83886547141,498.83886547141,496.95192256058,496.95192256058,2.5428314901757e-17,2.4746344435833e-21,-5.6876382686653e-23,8.5945486088857e-19,1.1216482919708e-21,-2.0345309284807e-16,-3.0126663567881e-17,-1.5444175550912e-23,1.8567558565337e-20,-9.2415751291194e-21,3.2825162175065e-19,5.7888783023346e-21,1.6458754100065e-18,1.5716003892346e-16,1.9295640296262e-19,-6.8327819724714e-20,3.899574213271e-20,1.7014647673737e-21,-8.620103065059e-17,-1.2658948933329e-17,-1.127338483165e-25,5.4176319835958e-22,-1.3404562555648e-21,-1.3956459805671e-19,3.9175723270285e-20,8.8786809756692e-21,3.5675374153042e-22,-2.439037209156e-16,-4.1375494466453e-17,-3.5025382046287e-22,1.7461529591901e-20,-1.7239051339438e-20,1.1634738777225e-18,3.2923607878887e-19,-2.5170417838566e-23,8.1772286482701e-17,9.1911301167248e-20,-1.08154975668e-20,1.401280995046e-18,1.5070952896988e-16,3.108776042573e-20,-1.8447406525565e-19,2.9907978273702e-22,-1.2225790089564e-17,-9.6788081562706e-21,6.2575338567639e-17,6.4074631094591e-22,-3.4415026862562e-18,622.24105264518,622.24105264518,622.19863290003,622.19863290003,622.89595878186,622.46860467676,623.50311513155,622.84690214498,621.3514001482,621.33474819714,622.08569338861,621.56119916016,622.61696393763,623.53347818066,623.24462961301,624.01869563006,623.2561899098,622.30910512229,622.05894796014,623.037619376,622.58742989977,621.26156774957,621.1898756859,622.61696393763,622.04030425576,621.64545561219,623.45931364736,622.86434318377,623.87514178034,623.08647750185,621.58627449373,621.68319584035,622.22335319235,621.66591026082,624.15836719858,623.89442788844,623.36634408516,624.25727013807,623.43120291357,623.07718178894,623.05040499139,623.60026639641,622.95046359715,624.15836719858,623.36139443945,623.36139443945,621.47445152862,621.47445152862,2.4009495517839e-19,0.0004686357012424,111.44284921378,-0.00030731749286179,110.23631351657,-0.00027035206085906,0
7.1875e-06,807433653.1171,807420544.84069,810034690.9311,0.062463104089687,0.64760436919854,-0.22576307227148,20000000,4.0556105025955e-07,2.1399404236411e-06,3.4575918321849e-07,1,497.71852367714,497.71852367714,497.676103932,497.676103932,498.37342981382,497.94607570872,498.98058616352,498.32437317694,496.82887118017,496.81221922911,497.56316442057,497.03867019213,498.09443496959,499.01094921262,498.72210064497,499.49616666203,498.73366094176,497.78657615426,497.53641899211,498.51509040797,498.06490093174,496.73903878154,496.66734671787,498.09443496959,497.51777528772,497.12292664415,498.93678467932,498.34181421574,499.35261281231,498.56394853381,497.06374552569,497.16066687231,497.70082422432,497.14338129279,499.63583823055,499.37189892041,498.84381511713,499.73474117004,498.90867394553,498.55465282091,498.52787602336,499.07773742837,498.42793462912,499.63583823055,498.83886547141,498.83886547141,496.95192256058,496.95192256058,1.3160747707086e-13,1.2806980526171e-17,-2.95308225814e-19,4.4515892337604e-15,5.8074585103984e-18,-1.0539777581585e-12,-1.5597442099416e-13,-8.0156504919419e-20,9.6187811459048e-17,-4.8006864998056e-17,1.7001681599357e-15,2.9951495394707e-17,8.5121639519231e-15,8.135047446732e-13,9.9955930950557e-16,-3.5472784651202e-16,2.0171931748562e-16,8.8094045098927e-18,-4.4670981962023e-13,-6.555828696215e-14,-5.8738036285098e-22,2.7380971148249e-18,-6.9643856979276e-18,-7.2300026148297e-16,2.0304222840211e-16,4.5998519151836e-17,1.8471625453681e-18,-1.263186132179e-12,-2.1412347012351e-13,-1.8165522270402e-18,9.0427980725546e-17,-8.9703163964309e-17,6.0228335079634e-15,1.7037151561404e-15,-1.312256323315e-19,4.2331616737433e-13,4.7605704490432e-16,-5.6193983932179e-17,7.2512939771593e-15,7.8007866482699e-13,1.6350646544987e-16,-9.5704747311278e-16,1.5460864379183e-18,-6.3179896364729e-14,-5.0155480003438e-17,3.2395101570572e-13,3.3173797848765e-18,-1.7847949976555e-14,622.24105264518,622.24105264518,622.19863290003,622.19863290003,622.89595878186,622.46860467676,623.50311513155,622.84690214498,621.3514001482,621.33474819714,622.08569338861,621.56119916016,622.61696393763,623.53347818066,623.24462961301,624.01869563006,623.2561899098,622.30910512229,622.05894796014,623.037619376,622.58742989977,621.26156774957,621.1898756859,622.61696393763,622.04030425576,621.64545561219,623.45931364736,622.86434318377,623.87514178034,623.08647750185,621.58627449373,621.68319584035,622.22335319235,621.66591026082,624.15836719858,623.89442788844,623.36634408516,624.25727013807,623.43120291357,623.07718178894,623.05040499139,623.60026639641,622.95046359715,624.15836719858,623.36139443945,623.36139443945,621.47445152862,621.47445152862,1.0040492024326e-12,0.00071848133443526,170.97164606058,-0.00072257442838577,169.12212316108,-0.00063539599525776,0
9.6875e-06,807433653.1171,807420544.84069,810034690.93109,0.062463104089687,0.64760436919854,-0.22576307227148,20000000,5.6616920132865e-07,2.8842665157986e-06,4.5938145749906e-07,1,497.71852367714,497.71852367714,497.676103932,497.676103932,498.37342981382,497.94607570872,498.98058616352,498.32437317694,496.82887118017,496.81221922911,497.56316442057,497.03867019212,498.09443496959,499.01094921262,498.72210064497,499.49616666203,498.73366094176,497.78657615426,497.53641899211,498.51509040797,498.06490093174,496.73903878154,496.66734671787,498.09443496959,497.51777528772,497.12292664415,498.93678467932,498.34181421574,499.35261281231,498.56394853381,497.06374552569,497.16066687231,497.70082422432,497.14338129279,499.63583823055,499.37189892041,498.84381511713,499.73474117004,498.90867394553,498.55465282091,498.52787602336,499.07773742837,498.42793462912,499.63583823055,498.83886547141,498.83886547141,496.95192256058,496.95192256058,5.1664081063181e-11,5.0272206000145e-15,-1.1629577854799e-16,1.7488486254415e-12,2.280669303828e-15,-4.1413651322998e-10,-6.124935874741e-11,-3.155415112052e-17,3.7794673293234e-14,-1.8914934122737e-14,6.6791713006017e-13,1.1754053662041e-14,3.3390978189675e-12,3.1939147358391e-10,3.9273670907004e-13,-1.3968077607536e-13,7.9145035502434e-14,3.4595281153229e-15,-1.7558333316732e-10,-2.57515324604e-11,-2.3212282326989e-19,1.0489744959407e-15,-2.744465209869e-15,-2.8408338359533e-13,7.9818070666465e-14,1.8075241126708e-14,7.2541823993809e-16,-4.9620522734447e-10,-8.4048782782159e-11,-7.145898649261e-16,3.5519656558311e-14,-3.5403103827661e-14,2.3647810624945e-12,6.6870048720168e-13,-5.1889996479489e-17,1.6621447000498e-10,1.8702221975641e-13,-2.2145034255954e-14,2.8461080228497e-12,3.0625368343689e-10,6.5206567497965e-14,-3.7659592404068e-13,6.0621525385363e-16,-2.4764363823659e-11,-1.9713283941856e-14,1.2720399972634e-10,1.3027187967015e-15,-7.0205771121932e-12,622.24105264518,622.24105264518,622.19863290003,622.19863290003,622.89595878186,622.46860467676,623.50311513155,622.84690214498,621.3514001482,621.33474819714,622.08569338861,621.56119916016,622.61696393763,623.53347818065,623.24462961301,624.01869563006,623.2561899098,622.30910512229,622.05894796014,623.037619376,622.58742989977,621.26156774957,621.1898756859,622.61696393763,622.04030425576,621.64545561219,623.45931364736,622.86434318377,623.87514178034,623.08647750185,621.58627449373,621.68319584035,622.22335319235,621.66591026082,624.15836719858,623.89442788844,623.36634408516,624.25727013807,623.43120291356,623.07718178894,623.05040499139,623.60026639641,622.95046359715,624.15836719858,623.36139443944,623.36139443944,621.47445152862,621.47445152862,5.1998824782533e-09,0.00096826204252643,230.56492928879,-0.0013127587522972,228.07276382724,-0.0011538588103784,0
1.21875e-05,807433653.11703,807420544.84047,810034690.93092,0.062463104089687,0.64760436919854,-0.22576307227148,20000000,7.5033954598867e-07,3.6285920868429e-06,5.8467080451126e-07,1.0000000000003,497.7185236771,497.7185236771,497.67610393198,497.67610393198,498.37342981375,497.94607570865,498.98058616349,498.3243731769,496.82887118012,496.81221922906,497.56316442056,497.0386701921,498.09443496956,499.01094921256,498.72210064491,499.49616666199,498.73366094171,497.78657615419,497.53641899203,498.51509040794,498.0649009317,496.73903878148,496.66734671781,498.09443496956,497.51777528771,497.12292664413,498.93678467926,498.34181421566,499.35261281227,498.56394853376,497.06374552564,497.16066687227,497.7008242243,497.14338129276,499.6358382305,499.37189892035,498.84381511706,499.73474117,498.90867394547,498.55465282085,498.52787602331,499.07773742834,498.42793462907,499.6358382305,498.83886547134,498.83886547134,496.95192256051,496.95192256051,5.110665952864e-09,4.9726756477287e-13,-1.1540713834543e-14,1.731290597595e-10,2.2569440493732e-13,-4.1004918910566e-08,-6.0608147514466e-09,-3.1300654200405e-15,3.7421566781871e-12,-1.8779583001585e-12,6.6120247242077e-11,1.1623511998322e-12,3.300653361789e-10,3.1598560134493e-08,3.8884226012025e-11,-1.3859804970837e-11,7.8249433817329e-12,3.4234925599217e-13,-1.7390868152212e-08,-2.5489397747341e-09,-2.3114537683748e-17,1.0120002875322e-13,-2.7252909496436e-13,-2.8127613405428e-11,7.9067329044393e-12,1.7898007785339e-12,7.178837047181e-14,-4.9117450262177e-08,-8.3134280971857e-09,-7.0834570555374e-14,3.5157303909855e-12,-3.5208669844339e-12,2.339711751093e-10,6.6137359712688e-11,-5.1703611379946e-15,1.6445744774215e-08,1.8514288395488e-11,-2.1990828490193e-12,2.8149343684477e-10,3.0297371727619e-08,6.550866436837e-12,-3.7341968250532e-11,5.9896548063368e-14,-2.446004356295e-09,-1.95244643063e-12,1.2586439836591e-08,1.2891043336099e-13,-6.9588420208554e-10,622.24105264513,622.24105264513,622.19863290001,622.19863290001,622.89595878179,622.46860467669,623.50311513152,622.84690214493,621.35140014815,621.33474819709,622.08569338859,621.56119916013,622.6169639376,623.5334781806,623.24462961295,624.01869563003,623.25618990975,622.30910512222,622.05894796007,623.03761937598,622.58742989974,621.26156774952,621.18987568585,622.6169639376,622.04030425575,621.64545561217,623.45931364729,622.8643431837,623.8751417803,623.08647750179,621.58627449368,621.68319584031,622.22335319234,621.66591026079,624.15836719853,623.89442788838,623.3663440851,624.25727013803,623.43120291351,623.07718178889,623.05040499134,623.60026639638,622.95046359711,624.15836719853,623.36139443938,623.36139443938,621.47445152855,621.47445152855,2.0425708732268e-06,0.001217977862487,290.22274665834,-0.0020778722439877,287.08828165207,-0.0018255619270507,0
1.34375e-05,807433653.11362,807420544.82979,810034690.92224,0.062463104089687,0.64760436919854,-0.22576307227148,20000000,8.1959343386423e-07,4.0007546773124e-06,6.4830736503807e-07,1.0000000000012,497.71852367482,497.71852367482,497.67610393104,497.67610393104,498.37342981034,497.94607570495,498.98058616189,498.32437317461,496.82887117748,496.81221922662,497.56316441996,497.03867019082,498.09443496795,499.01094920963,498.72210064193,499.49616666031,498.73366093911,497.78657615067,497.53641898838,498.51509040668,498.06490092995,496.73903877859,496.66734671499,498.09443496795,497.51777528716,497.1229266431,498.93678467606,498.34181421202,499.35261281029,498.56394853099,497.06374552321,497.1606668702,497.70082422347,497.14338129115,499.63583822791,499.37189891743,498.84381511379,499.73474116805,498.90867394262,498.55465281806,498.52787602077,499.07773742681,498.42793462666,499.63583822791,498.83886546802,498.83886546802,496.95192255717,496.95192255717,3.6071923587787e-08,3.5096924600878e-12,-8.1585727748256e-14,1.2224368093499e-09,1.5933026164976e-12,-2.8955237165716e-07,-4.2785187223663e-08,-2.2123245950292e-14,2.6425025060213e-11,-1.3279234001691e-11,4.6686133126687e-10,8.2027516295092e-12,2.3288040627279e-09,2.2304205469441e-07,2.7457201924407e-10,-9.7974797699157e-11,5.52148203592e-11,2.4168175453696e-12,-1.2282465100517e-07,-1.7996391677723e-08,-1.636862050113e-16,7.0524169609374e-13,-1.9272463749918e-12,-1.9862038218609e-10,5.5846043120715e-11,1.2638994360172e-11,5.0679829697597e-13,-3.4679099127071e-07,-5.86748910992e-08,-5.0047977633087e-13,2.4821998684362e-11,-2.491712886578e-11,1.6515647851098e-09,4.667688021681e-10,-3.662552983436e-14,1.1608961887017e-07,1.3072569866817e-10,-1.5551456073753e-11,1.9866521863687e-09,2.1385244977627e-07,4.6591174391886e-11,-2.6387919999487e-10,4.2250924600973e-13,-1.7251232605276e-08,-1.3789111244659e-11,8.8848212096244e-08,9.1002824346997e-13,-4.9166027562044e-09,622.24105264286,622.24105264286,622.19863289908,622.19863289908,622.89595877837,622.46860467298,623.50311512993,622.84690214265,621.35140014552,621.33474819465,622.085693388,621.56119915886,622.61696393599,623.53347817767,623.24462960997,624.01869562835,623.25618990714,622.30910511871,622.05894795641,623.03761937471,622.58742989798,621.26156774663,621.18987568303,622.61696393599,622.0403042552,621.64545561113,623.4593136441,622.86434318005,623.87514177833,623.08647749902,621.58627449125,621.68319583824,622.2233531915,621.66591025918,624.15836719594,623.89442788546,623.36634408182,624.25727013608,623.43120291066,623.0771817861,623.0504049888,623.60026639485,622.9504635947,624.15836719594,623.36139443606,623.36139443606,621.4744515252,621.4744515252,0.00020218140833256,0.0013428114593072,320.07587042189,-0.0025260324983189,316.62038376076,-0.0022188452898275,0
1.46875e-05,807433653.0895,807420544.75439,810034690.86096,0.062463104089687,0.64760436919854,-0.22576307227148,20000000,8.9518406165226e-07,4.3729171374492e-06,7.0294917416974e-07,1.0000000000069,497.71852365879,497.71852365879,497.67610392443,497.67610392443,498.37342978619,497.94607567881,498.98058615064,498.32437315848,496.8288711589,496.81221920939,497.56316441578,497.03867018183,498.09443495661,499.01094918898,498.72210062087,499.49616664845,498.73366092074,497.78657612583,497.53641896257,498.51509039775,498.06490091756,496.73903875822,496.66734669509,498.09443495661,497.51777528329,497.12292663579,498.93678465353,498.3418141863,499.35261279637,498.56394851141,497.06374550606,497.16066685556,497.7008242176,497.1433812798,499.63583820965,499.3718988968,498.84381509065,499.73474115428,498.90867392248,498.55465279839,498.52787600283,499.07773741601,498.42793460967,499.63583820965,498.83886544459,498.83886544459,496.95192253354,496.95192253354,2.1397846356288e-07,2.0818980630181e-11,-4.8473424465203e-13,7.2542633589578e-09,9.4533814019293e-12,-1.7183800848159e-06,-2.5384325185647e-07,-1.314179023298e-13,1.5682677721947e-10,-7.8916289214022e-11,2.7704454217125e-09,4.8650834348058e-11,1.3809384033134e-08,1.3231695137677e-06,1.6294745629076e-09,-5.8207839787414e-10,3.2744093037055e-10,1.4339359281776e-11,-7.2904056756632e-07,-1.0678766234069e-07,-9.7419639947376e-16,4.1307835748595e-12,-1.1454309616289e-11,-1.1787615738998e-09,3.3150948555272e-10,7.5012081350914e-11,3.0069599750404e-12,-2.0577858443351e-06,-3.480441891394e-07,-2.9719262547261e-12,1.4728866603977e-10,-1.4820017513091e-10,9.7979939343805e-09,2.768633430089e-09,-2.1804927989981e-13,6.8871982902293e-07,7.7575332357755e-10,-9.2429412750952e-11,1.1783563991712e-08,1.2686232480734e-06,2.784784097022e-10,-1.5671955169728e-09,2.5048250697124e-12,-1.0225712686839e-07,-8.1847088587326e-11,5.2710206310489e-07,5.3992444474733e-12,-2.9194252500844e-08,622.24105262683,622.24105262683,622.19863289247,622.19863289247,622.89595875423,622.46860464684,623.50311511867,622.84690212651,621.35140012694,621.33474817742,622.08569338381,621.56119914987,622.61696392464,623.53347815702,623.2446295889,624.01869561648,623.25618988877,622.30910509387,622.05894793061,623.03761936579,622.5874298856,621.26156772625,621.18987566313,622.61696392464,622.04030425133,621.64545560383,623.45931362157,622.86434315433,623.87514176441,623.08647747944,621.5862744741,621.6831958236,622.22335318564,621.66591024783,624.15836717768,623.89442786483,623.36634405868,624.25727012232,623.43120289052,623.07718176642,623.05040497087,623.60026638404,622.9504635777,624.15836717768,623.36139441263,623.36139441263,621.47445150157,621.47445150157,0.0014274663045111,0.001467628847921,349.94514440253,-0.0030178386886602,346.16872133035,-0.0026502381348088,0
1.59375e-05,807433652.94645,807420544.30703,810034690.49736,0.062463104089687,0.64760436919854,-0.22576307227148,20000000,9.4989703836527e-07,4.7450794619164e-06,7.6916980245671e-07,1.0000000000358,497.71852356369,497.71852356369,497.67610388522,497.67610388522,498.37342964296,497.94607552367,498.98058608386,498.32437306273,496.82887104865,496.81221910713,497.56316439094,497.03867012846,498.09443488928,499.01094906647,498.72210049588,499.49616657806,498.73366081175,497.78657597848,497.53641880943,498.51509034478,498.0649008441,496.73903863733,496.667346577,498.09443488928,497.51777526032,497.12292659244,498.93678451984,498.34181403365,499.35261271379,498.56394839523,497.06374540432,497.16066676871,497.70082418278,497.14338121247,499.63583810131,499.37189877443,498.84381495335,499.73474107261,498.908673803,498.55465268166,498.52787589641,499.07773735192,498.42793450884,499.63583810131,498.83886530557,498.83886530557,496.95192239332,496.95192239332,1.0975432181532e-06,1.0678487674942e-10,-2.4902370962001e-12,3.7223386872433e-08,4.8499180508908e-11,-8.8170576694193e-06,-1.3022352659189e-06,-6.7501661273239e-13,8.0479372873881e-10,-4.0550986836082e-10,1.4215401618398e-08,2.4949993924605e-10,7.0804914370418e-08,6.7872830180205e-06,8.3615971218258e-09,-2.9902252187598e-09,1.6789201380282e-09,7.3565447970795e-11,-3.7414123306529e-06,-5.4790977434674e-07,-5.0134031039372e-15,2.0935854868456e-11,-5.8863207962843e-11,-6.0490653775418e-09,1.7015602174687e-09,3.8495291832047e-10,1.5426895934967e-11,-1.0557027027702e-05,-1.7851233365695e-06,-1.5259598587987e-11,7.5572110970776e-10,-7.6212793474199e-10,5.0260473162489e-08,1.4199692979454e-08,-1.1224772114182e-12,3.5330011452972e-06,3.9804912116314e-09,-4.750116601041e-10,6.0428790004939e-08,6.5073258871536e-06,1.4391979456972e-09,-8.0481689420203e-09,1.2839744317864e-11,-5.2410637301713e-07,-4.2007077580856e-10,2.7036381558954e-06,2.7699340089051e-11,-1.4988566669177e-07,622.24105253173,622.24105253173,622.19863285326,622.19863285326,622.895958611,622.46860449171,623.50311505189,622.84690203076,621.35140001668,621.33474807516,622.08569335898,621.5611990965,622.61696385732,623.5334780345,623.24462946391,624.0186955461,623.25618977979,622.30910494651,622.05894777747,623.03761931282,622.58742981213,621.26156760537,621.18987554503,622.61696385732,622.04030422836,621.64545556048,623.45931348788,622.86434300168,623.87514168183,623.08647736327,621.58627437235,621.68319573675,622.22335315082,621.6659101805,624.15836706935,623.89442774247,623.36634392138,624.25727004065,623.43120277104,623.0771816497,623.05040486445,623.60026631996,622.95046347688,624.15836706935,623.3613942736,623.3613942736,621.47445136136,621.47445136136,0.0084700397138251,0.0015924300329399,379.83057026488,-0.0035532894637304,375.73329594317,-0.0031196143388925,0
1.71875e-05,807433652.21263,807420542.01202,810034688.63195,0.062463104089687,0.64760436919854,-0.22576307227148,20000000,1.0181077657176e-06,5.1172423200625e-06,8.3275999901612e-07,1.0000000001675,497.71852307586,497.71852307586,497.67610368406,497.67610368406,498.37342890818,497.94607472774,498.9805857413,498.3243725715,496.82887048306,496.81221858248,497.56316426355,497.03866985472,498.09443454387,499.01094843803,498.72209985461,499.496166217,498.73366025265,497.7865752225,497.53641802371,498.51509007308,498.06490046718,496.73903801714,496.66734597109,498.09443454387,497.51777514251,497.12292637008,498.93678383402,498.34181325047,499.35261229017,498.5639477992,497.06374488238,497.1606663231,497.70082400417,497.1433808671,499.63583754559,499.37189814676,498.84381424893,499.73474065368,498.90867319007,498.55465208292,498.52787535044,499.07773702317,498.42793399163,499.63583754559,498.83886459228,498.83886459228,496.95192167395,496.95192167395,4.8748169830101e-06,3.3263904921063e-10,-1.1284460349254e-11,1.7442836058864e-07,2.1933875337971e-10,-3.9983950710767e-05,-5.8150105291373e-06,-2.6592709305523e-12,3.2047854634395e-09,-1.8405169553599e-09,6.4388790062842e-08,9.8671551107038e-10,3.1967826256393e-07,3.1121221433573e-05,4.5082122351776e-08,-1.3597502954032e-08,7.6010840502627e-09,3.3310974753422e-10,-1.6966073392042e-05,-2.4362502180451e-06,-1.2326421334148e-14,1.7831128160036e-11,-2.6724716268789e-10,-2.7497950036518e-08,7.7075031752067e-09,2.0452196260424e-09,6.9684695227065e-11,-4.7869845258156e-05,-8.0366839784346e-06,-6.5008860996604e-11,2.7681377147032e-09,-3.4559452263754e-09,2.2765385578548e-07,5.947804153409e-08,-5.1113806635379e-12,1.6275980320658e-05,2.1329712897325e-08,-2.1607508861529e-09,2.7374824749881e-07,2.9621794613265e-05,1.3892281279649e-08,-3.6588038900195e-08,5.6312976886423e-11,-2.3741287736461e-06,-1.9871781558975e-09,1.2255143513867e-05,1.2567380660124e-10,-6.7921639273159e-07,622.2410520439,622.2410520439,622.19863265209,622.19863265209,622.89595787621,622.46860369577,623.50311470934,622.84690153953,621.35139945109,621.33474755051,622.08569323158,621.56119882275,622.61696351191,623.53347740606,623.24462882265,624.01869518504,623.25618922069,622.30910419053,622.05894699174,623.03761904112,622.58742943522,621.26156698518,621.18987493913,622.61696351191,622.04030411055,621.64545533812,623.45931280206,622.8643422185,623.8751412582,623.08647676724,621.58627385042,621.68319529114,622.22335297221,621.66590983514,624.15836651362,623.89442711479,623.36634321696,624.25726962171,623.4312021581,623.07718105096,623.05040431847,623.60026599121,622.95046295967,624.15836651362,623.36139356032,623.36139356032,621.47445064199,621.47445064199,0.04344948941583,0.001717215096828,409.73050791746,-0.0041214281690361,405.31282901765,-0.0035964557757193,0
1.84375e-05,807433648.85733,807420531.56964,810034680.18837,0.062463104089687,0.64760436919854,-0.22576307227148,20000000,1.0976224421979e-06,5.4894044851928e-06,8.9572733181627e-07,1.0000000007036,497.71852085084,497.71852085084,497.67610277645,497.67610277645,498.37342556354,497.94607111806,498.98058418644,498.32437034687,496.82886790565,496.8122162029,497.56316368851,497.03866861223,498.09443297666,499.01094556954,498.72209694422,499.49616457249,498.7336577105,497.7865717836,497.53641445866,498.51508884291,498.06489876193,496.73903519399,496.66734322142,498.09443297666,497.517774612,497.12292536397,498.93678071042,498.34180969942,499.35261036351,498.56394509809,497.06374250198,497.16066430269,497.70082319559,497.14337929564,499.63583501251,499.37189528253,498.84381105246,499.73473874415,498.90867040641,498.55464934996,498.52787287234,499.0777355278,498.42793163683,499.63583501251,498.83886135719,498.83886135719,496.95191840547,496.95191840547,1.9870355718788e-05,1.3564409411404e-09,-4.6062942908338e-11,7.1143730981875e-07,8.9454282105222e-10,-0.00016276714613637,-2.3708012910822e-05,-1.086157751226e-11,1.307453538075e-08,-7.5126624180888e-09,2.6251697319603e-07,4.0212074422152e-09,1.3023765096427e-06,0.00012686722063849,1.8382098540078e-07,-5.552288811016e-08,3.0930269436855e-08,1.358529829695e-09,-6.909429714312e-05,-9.9344062607525e-06,-5.0677819912822e-14,7.4281997679364e-11,-1.0910578696125e-09,-1.1218760193443e-07,3.1434224243409e-08,8.3439856558356e-09,2.842029342978e-10,-0.0001948134836817,-3.2759392474856e-05,-2.6534532454135e-10,1.1291400776522e-08,-1.4110520836377e-08,9.2790131147696e-07,2.4241057847027e-07,-2.0913135864847e-11,6.6353785497005e-05,8.6968300759003e-08,-8.8263989338518e-09,1.113763476339e-06,0.00012075026893353,5.6839306959092e-08,-1.4935281019147e-07,2.2925631187466e-10,-9.6711738419923e-06,-8.1057874722943e-09,4.9861227249151e-05,5.1253131153496e-10,-2.7687691560903e-06,622.24104981888,622.24104981888,622.19863174448,622.19863174448,622.89595453158,622.4686000861,623.50311315447,622.8468993149,621.35139687368,621.33474517093,622.08569265655,621.56119758027,622.6169619447,623.53347453757,623.24462591226,624.01869354052,623.25618667853,622.30910075163,622.0589434267,623.03761781094,622.58742772997,621.26156416203,621.18987218945,622.6169619447,622.04030358004,621.645454332,623.45930967846,622.86433866746,623.87513933154,623.08647406613,621.58627147002,621.68319327073,622.22335216363,621.66590826368,624.15836398055,623.89442425056,623.36634002049,624.25726771219,623.43119937445,623.077178318,623.05040184037,623.60026449584,622.95046060486,624.15836398055,623.36139032522,623.36139032522,621.47444737351,621.47444737351,0.19697773161323,0.0018419839003231,439.64801753474,-0.0047441453176392,434.90968712756,-0.0041386410596188,0
1.96875e-05,807433635.18242,807420489.03128,810034645.80679,0.062463104089687,0.64760436919854,-0.22576307227148,20000000,1.156791692447e-06,5.8615665390388e-06,9.5918377079687e-07,1.0000000026887,497.71851178184,497.71851178184,497.67609907928,497.67609907928,498.37341193674,497.94605642413,498.98057785025,498.32436128974,496.82885740261,496.81220651576,497.56316134474,497.0386635495,498.09442659485,499.01093387691,498.72208509602,499.49615786957,498.73364735593,497.78655777515,497.53639994496,498.5150838306,498.06489181858,496.73902369234,496.66733202661,498.09442659485,497.51777244947,497.12292126505,498.93676798201,498.34179524478,499.35260251137,498.56393410179,497.06373279994,497.16065607784,497.70081990127,497.1433728915,499.6358246877,499.37188360733,498.84379804002,499.73473096015,498.90865907118,498.5546382099,498.52786278341,499.07772943454,498.42792204253,499.6358246877,498.83884818762,498.83884818762,496.95190509511,496.95190509511,7.3801073550222e-05,5.0453790970869e-09,-1.7126268433682e-10,2.6455717892615e-06,3.3270723770547e-09,-0.00060117301895958,-8.8085709484023e-05,-4.0441956825534e-11,4.8652236569139e-08,-2.791244844304e-08,9.7488943772381e-07,1.493101093463e-08,4.8328417734419e-06,0.00047129256502466,6.8289729270175e-07,-2.0670121530005e-07,1.142840101258e-07,5.0527078890993e-09,-0.000255454172312,-3.6919628269487e-05,-1.8987822229187e-13,3.4563506816381e-10,-4.0554512394651e-09,-4.1752985496815e-07,1.1677303261681e-07,3.1042998986916e-08,1.0570595875595e-09,-0.00071906800202512,-0.00012169473099351,-9.8728021582188e-10,4.2010810580316e-08,-5.2370461504751e-08,3.4449192047367e-06,9.0016504843301e-07,-7.7996514856586e-11,0.00024651587637822,3.2307871460516e-07,-3.2870442992052e-08,4.1112675420898e-06,0.0004485392763314,2.1206584575533e-07,-5.5586801532417e-07,8.4911909040698e-10,-3.5908072000268e-05,-3.0134350807531e-08,0.00018396509096682,1.9062222225458e-09,-1.0260948960681e-05,622.24104074987,622.24104074987,622.19862804732,622.19862804732,622.89594090478,622.46858539216,623.50310681829,622.84689025778,621.35138637064,621.3347354838,622.08569031277,621.56119251753,622.61695556289,623.53346284495,623.24461406406,624.01868683761,623.25617632396,622.30908674319,622.05892891299,623.03761279864,622.58742078662,621.26155266038,621.18986099464,622.61695556289,622.04030141751,621.64545023309,623.45929695004,622.86432421282,623.87513147941,623.08646306982,621.58626176797,621.68318504588,622.22334886931,621.66590185953,624.15835365573,623.89441257536,623.36632700805,624.25725992818,623.43118803921,623.07716717794,623.05039175144,623.60025840257,622.95045101056,624.15835365573,623.36137715565,623.36137715565,621.47443406314,621.47443406314,0.80053803858624,0.0019667365153039,469.58133800949,-0.0054095624204979,464.52244321259,-0.0047180881780717,0
2.09375e-05,807433584.42506,807420331.45176,810034518.65624,0.062463104089687,0.64760436919854,-0.22576307227148,20000000,1.2233533799799e-06,6.2337286127861e-06,1.0192137019446e-06,1.0000000094053,497.71847810956,497.71847810956,497.67608538397,497.67608538397,498.37336143094,497.94600214855,498.98055434557,498.32432781202,496.82881844448,496.81217072828,497.56315264392,497.03864477367,498.09440299014,499.010890452,498.72204131643,499.49613298256,498.73360901124,497.78650589111,497.53634631524,498.51506524754,498.06486614236,496.73898107223,496.66729065407,498.09440299014,497.51776441784,497.12290607375,498.93672077313,498.34174186064,499.35257337038,498.56389346691,497.06369678478,497.1606256941,497.700807692,497.14334912756,499.63578635194,499.37184024851,498.84374996364,499.73470204597,498.90861713976,498.55459683837,498.52782549671,499.077706837,498.42788647196,499.63578635194,498.83879953157,498.83879953157,496.95185585475,496.95185585475,0.00025216269325019,1.7320295850308e-08,-5.8506638693667e-10,9.0666182634968e-06,1.1413275726563e-08,-0.0020173051567248,-0.00030119651330092,-1.3872302923618e-10,1.6706987041252e-07,-9.5107227636414e-08,3.3267590503498e-06,5.0986374448623e-08,1.6478293538172e-05,0.0016110620814777,2.333187860381e-06,-7.0915636261294e-07,3.845280353693e-07,1.7332425645068e-08,-0.00085954913302494,-0.00012629873416873,-6.5488980365749e-13,2.0859015617232e-09,-1.3834794717292e-08,-1.4344427238561e-06,3.9861073385922e-07,1.065080499009e-07,3.6263610187021e-09,-0.0024088000081683,-0.00041607923370115,-3.3836563320885e-09,1.442464760064e-07,-1.7752633818469e-07,1.1752328719136e-05,3.0743134469402e-06,-2.6791886067171e-10,0.0008428341424102,1.1038133621626e-06,-1.1279990881261e-07,1.378675441745e-05,0.0015330425361274,7.2960728147918e-07,-1.9069428138142e-06,2.88031949537e-09,-0.0001227609183611,-1.0313153160488e-07,0.00061573030599657,6.5391267374378e-09,-3.4748082330161e-05,622.2410070776,622.2410070776,622.198614352,622.198614352,622.89589039897,622.46853111658,623.50308331361,622.84685678006,621.35134741252,621.33469969631,622.08568161195,621.5611737417,622.61693195818,623.53341942003,623.24457028447,624.01866195059,623.25613797928,622.30903485915,622.05887528328,623.03759421558,622.5873951104,621.26151004026,621.1898196221,622.61693195818,622.04029338588,621.64543504179,623.45924974117,622.86427082868,623.87510233841,623.08642243495,621.58622575281,621.68315466213,622.22333666004,621.66587809559,624.15831531998,623.89436921655,623.36627893168,624.25723101401,623.4311461078,623.0771258064,623.05035446475,623.60023580504,622.95041543999,624.15831531998,623.3613284996,623.3613284996,621.47438482278,621.47438482278,2.9411361451898,0.0020914729474644,499.52965358224,-0.0061189893685525,494.1502836019,-0.0053358035810328,0
2.21875e-05,807433411.37223,807419797.55436,810034090.15729,0.062463104089687,0.64760436919854,-0.22576307227148,20000000,1.2897217133315e-06,6.6058920794284e-06,1.0892273790781e-06,1.0000000300837,497.71836318858,497.71836318858,497.67603898492,497.67603898492,498.3731900325,497.94581995185,498.98047435396,498.32421517221,496.82868591256,496.81205053966,497.56312296631,497.03858092304,498.09432340645,499.01074212681,498.72189418007,499.49604804744,498.73347922145,497.78633020915,497.53616607619,498.51500211823,498.06477962583,496.73883653837,496.66715154441,498.09432340645,497.5177369821,497.12285452127,498.93656020697,498.34156273316,499.35247406037,498.56375686136,497.06357395777,497.16052366913,497.70076626558,497.14326817162,499.63565551169,499.37169216502,498.84358844008,499.73460322517,498.90847569466,498.55445553892,498.52770010082,499.07762999523,498.42776562692,499.63565551169,498.83863606715,498.83863606715,496.95168975483,496.95168975483,0.00079611720457235,5.5463973212242e-08,-1.828905325084e-09,2.8861920232744e-05,3.6448968609857e-08,-0.0060750201870023,-0.00095254731137213,-4.4128618247078e-10,5.3495337613562e-07,-2.9779623886643e-07,1.0301676021827e-05,1.6076164074173e-07,5.0654676744989e-05,0.0050927214995579,7.3791775417179e-06,-2.1993256573091e-06,1.1655483696135e-06,5.5345041570492e-08,-0.0026057143053823,-0.00039993394108842,-2.0889523294816e-12,1.4985521879042e-08,-4.3386308145092e-08,-4.4604906824423e-06,1.2376742054975e-06,3.3991982254121e-07,1.1583324076761e-08,-0.0072233953354705,-0.0013158060179547,-1.0751543045355e-08,4.6187041612191e-07,-5.5602941975195e-07,3.6307820167105e-05,9.6956414249657e-06,-8.1942825864434e-10,0.0026654252449905,3.4826752082545e-06,-3.4931513507307e-07,4.1445986211359e-05,0.0048440762091718,2.5154449405226e-06,-5.9213270334437e-06,8.9237048996316e-09,-0.00038850712967585,-3.267503125772e-07,0.0018423446249233,2.0880580182344e-08,-0.00010694095800656,622.24089215661,622.24089215661,622.19856795296,622.19856795296,622.89571900053,622.46834891988,623.503003322,622.84674414024,621.35121488059,621.33457950769,622.08565193435,621.56110989108,622.61685237448,623.53327109484,623.2444231481,624.01857701548,623.25600818948,622.30885917718,622.05869504422,623.03753108626,622.58730859387,621.26136550641,621.18968051245,622.61685237448,622.04026595013,621.64538348931,623.459089175,622.8640917012,623.87500302841,623.0862858294,621.5861029258,621.68305263716,622.22329523362,621.66579713965,624.15818447973,623.89422113305,623.36611740812,624.25713219321,623.4310046627,623.07698450695,623.05022906885,623.60015896327,622.95029459495,624.15818447973,623.36116503519,623.36116503519,621.47421872286,621.47421872286,9.7120190053685,0.0022161932175865,529.48991569018,-0.0068696753393577,523.79102280253,-0.005987175503735,0
2.34375e-05,807432868.00386,807418148.23523,810032784.85879,0.062463104089687,0.64760436919854,-0.22576307227148,20000329.076304,1.3559680399772e-06,6.9780554262924e-06,1.1590364270959e-06,1.0000000871482,497.71800138546,497.71800138546,497.67589566745,497.67589566745,498.37265825355,497.94527071034,498.98022438297,498.3238734719,496.82827214199,496.81168784207,497.56302974457,497.03838174798,498.09408075399,499.01027421674,498.7214492347,499.49578072524,498.7330792079,497.78578831401,497.53562103961,498.5148057514,498.06451615793,496.73838896362,496.66673039558,498.09408075399,497.51765046716,497.12269458472,498.93605916693,498.34102335322,499.35216261428,498.56334339534,497.06318801193,497.16021592758,497.70063786709,497.14301449055,499.63524359901,499.37122515252,498.84310039923,499.73429104619,498.9080436753,498.55400988304,498.5273202646,499.07739039945,498.42738959304,499.63524359901,498.8381421875,498.8381421875,496.95118251638,496.95118251638,0.0023145019925827,1.6736537862275e-07,-5.2499118026839e-09,8.5710534434526e-05,1.0917059455793e-07,-0.01593483391364,-0.0027835741319434,-1.3062240300191e-09,1.6127624699793e-06,-8.4461521130878e-07,2.9573255017423e-05,4.6574603520416e-07,0.00014523203447383,0.014853350150129,2.1378621447152e-05,-6.5336518997308e-06,3.1205150860813e-06,1.6573487772516e-07,-0.0069282080852674,-0.0011718724586231,-6.174934626478e-12,1.0863015921301e-07,-1.2412770268514e-07,-1.3461582981929e-05,3.5537483141209e-06,1.0168911574304e-06,3.4707160909368e-08,-0.018783850730155,-0.0038469991357005,-3.1749322123335e-08,1.3927172631432e-06,-1.5111345761913e-06,0.00010420628227255,2.8106771617904e-05,-2.42224438244e-09,0.0077818176037318,1.0092516660571e-05,-1.036841204442e-06,0.0001086626626763,0.014113347838706,7.4945161202508e-06,-1.761982916328e-05,2.5137064497364e-08,-0.0011403012777383,-9.5787466903978e-07,0.0047718743562718,6.2545719403608e-08,-0.00029300950494066,622.24053043333,622.24053043333,622.19842471532,622.19842471532,622.89518730142,622.46779975821,623.50275343084,622.84640251977,621.35080118986,621.33421688994,622.08555879244,621.56091079584,622.61660980186,623.53280326461,623.24397828257,624.01830977311,623.25560825576,622.30831736188,622.05815008747,623.03733479927,622.58704520579,621.26091801149,621.18925944345,622.61660980186,622.04017951502,621.64522363259,623.45858821479,622.86355240109,623.87469166215,623.08587244321,621.5857170598,621.68274497545,622.22316691496,621.66554353842,624.15777264688,623.89375420039,623.3656294471,624.25682009406,623.43057272316,623.07653893091,623.04984931246,623.59991944732,622.94991864091,624.15777264688,623.36067123537,623.36067123537,621.47371156425,621.47371156425,27.957439184199,0.0023408973121644,559.45785793859,-0.0076702791456805,553.43879143692,-0.0066849753686856,0
2.46875e-05,807431304.7871,807413563.20462,810029267.62619,0.062463104089687,0.64760436919854,-0.22576307227148,20097841.719868,1.4249083152098e-06,7.3502207942179e-06,1.2262220278973e-06,1.0000002267132,497.71695485199,497.71695485199,497.67549699903,497.67549699903,498.37116644494,497.94382616214,498.97951180048,498.32296130708,496.82709616815,496.81073167555,497.56276081044,497.03781638668,498.09342523147,499.00891504809,498.72027010672,499.4950072737,498.73197281859,497.78428731369,497.53417718613,498.51425129126,498.06380649007,496.73713881558,496.66561188612,498.09342523147,497.51739885152,497.12224569476,498.93463620292,498.33960840427,499.35126836021,498.56224547806,497.06207627922,497.15940537519,497.70027794618,497.14228768716,499.6340517562,499.36986929078,498.84180964656,499.73338112788,498.90687242567,498.55271596695,498.52630970551,499.07671048457,498.4263278811,499.6340517562,498.83683618654,498.83683618654,496.94980844467,496.94980844467,0.0061023769460711,4.818401986506e-07,-1.3349326338589e-08,0.00023757463583521,3.0844928834868e-07,-0.035666157624436,-0.0074376334385845,-3.5778374009678e-09,4.6287285426977e-06,-2.1411816563085e-06,7.5405525055048e-05,1.2186404318543e-06,0.00036965006843771,0.039452972805598,5.5804355252602e-05,-1.8046839087941e-05,7.2816246094935e-06,4.6803993226432e-07,-0.01580451426253,-0.003152239922268,-1.6695877658023e-11,6.6156108937947e-07,-3.2084561465117e-07,-3.8331794532827e-05,9.0597630723894e-06,2.862701229644e-06,9.8153360043126e-08,-0.041522244531988,-0.010285010798945,-8.6525947521761e-08,4.0005417705626e-06,-3.4754870013353e-06,0.00026570329291868,7.3622885330461e-05,-6.5877352370057e-09,0.020716051642623,2.6363808265106e-05,-2.8567229899262e-06,0.0002442397602292,0.037397625327162,2.0812697021228e-05,-4.8855557629979e-05,6.4211741349316e-08,-0.0030746263514755,-2.5688477583793e-06,0.010493977607639,1.767394447403e-07,-0.00069503211429126,622.23950972939,622.23950972939,622.19805187643,622.19805187643,622.89372132234,622.46638103954,623.50206667788,622.84551618448,621.34965104555,621.33328655295,622.08531568784,621.56037126408,622.61598010887,623.53146992548,623.24282498412,624.0175621511,623.25452769599,622.30684219109,622.05673206353,623.03680616866,622.58636136747,621.25969369298,621.18816676352,622.61598010887,622.03995372892,621.64480057216,623.45719108032,622.86216328167,623.87382323761,623.08480035546,621.58463115662,621.68196025259,622.22283282358,621.66484256456,624.1566066336,623.89242416818,623.36436452396,624.25593600528,623.42942730307,623.07527084435,623.04886458291,623.59926536197,622.9488827585,624.1566066336,623.35939106394,623.35939106394,621.47236332207,621.47236332207,66.590071465863,0.0024655852583169,589.42101146683,-0.0085221496833431,583.08207141181,-0.0074291406762735,0
2.59375e-05,807427234.04326,807402227.18182,810021001.15765,0.062463104089687,0.64760436919854,-0.22576307227148,20345118.760867,1.4893328980093e-06,7.7223899374701e-06,1.2841437003767e-06,1.0000005299737,497.71420846589,497.71420846589,497.67450796609,497.67450796609,498.3674249077,497.9405754352,498.9776778935,498.32085101317,496.82409009955,496.80857260491,497.56205625603,497.03637245297,498.0918783975,499.00532566486,498.71757964236,499.49297426615,498.72925782767,497.78059778862,497.53088602579,498.51284394975,498.06213828093,496.73402683063,496.66305228147,498.0918783975,497.51673150554,497.12111793082,498.93099922133,498.33643873949,499.34894334843,498.55972975403,497.05917738738,497.15757781432,497.69937544989,497.14040636793,499.63092013234,499.36629069305,498.83887474002,499.73096450519,498.90409091969,498.54930165886,498.5239877815,499.07497354432,498.42363799592,499.63092013234,498.83386677399,498.83386677399,496.94655327978,496.94655327978,0.01429177919464,1.3425706045979e-06,-2.8638204559216e-08,0.00061305598539952,8.2483328913345e-07,-0.068748042136737,-0.017915863179373,-8.9251349739814e-09,1.2800899679158e-05,-4.8355492941976e-06,0.00016342954737403,2.8133536900924e-06,0.00079936358246767,0.093759811398037,0.00012738876286918,-4.5814316198647e-05,1.5119607163981e-05,1.2502843454912e-06,-0.030980590505349,-0.0077054063348218,-3.9841836453148e-11,3.1707666257095e-06,-7.4985785444344e-07,-0.00010163254747187,1.9608526214617e-05,7.5810629072919e-06,2.6302990533404e-07,-0.079151197637282,-0.024736959381391,-2.1366750461399e-07,1.1088591717363e-05,-6.5111352196474e-06,0.00057631747364752,0.00017021327150537,-1.6111153947512e-08,0.049432175479811,6.0275110562651e-05,-7.2129208648084e-06,0.00048032526217837,0.088463879635167,5.3273269434533e-05,-0.00012487870641598,1.5166426638768e-07,-0.0074771110554847,-6.1621358706864e-06,0.019967226617555,4.7275971854198e-07,-0.0014055759109025,622.23689086004,622.23689086004,622.19719036024,622.19719036024,622.89010730186,622.46325782936,623.50036028765,622.84353340732,621.3467724937,621.33125499906,622.08473865018,621.55905484712,622.61456079165,623.52800805901,623.24026203651,624.0156566603,623.25194022182,622.30328018277,622.05356841994,623.0355263439,622.58482067508,621.25670922478,621.18573467562,622.61456079165,622.03941389969,621.64380032498,623.45368161549,622.85912113364,623.87162574258,623.08241214818,621.58185978153,621.68026020848,622.22205784404,621.66308876208,624.1536025265,623.8889730872,623.36155713417,624.25364689934,623.42677331384,623.07198405301,623.04667017565,623.59765593847,622.94632039007,624.1536025265,623.35654916815,623.35654916815,621.46923567393,621.46923567393,125.95340203334,0.0025902570749101,619.3585210432,-0.0094334924582143,612.70031035288,-0.0082278825090191,0
2.71875e-05,807417762.88096,807377323.08274,810003909.91749,0.062463104089687,0.64760436919854,-0.22576307227148,20761880.312949,1.5514198177907e-06,8.0945687008246e-06,1.3460235514078e-06,1.0000011231195,497.70776884678,497.70776884678,497.67231463988,497.67231463988,498.3590646602,497.93425182056,498.9734484253,498.3165743936,496.8172406816,496.80435965385,497.56039935142,497.03307962147,498.08866666322,498.99684888128,498.71224107611,499.48818748555,498.72333965532,497.77254703275,497.52436877656,498.5096432617,498.05868233698,496.72714351047,496.65796261752,498.08866666322,497.51513995849,497.11858855357,498.92269687842,498.33031086224,499.34352817808,498.55470124767,497.05242954513,497.15401786632,497.69735499366,497.13605720412,499.62355441896,499.35784138706,498.83307834423,499.7252150963,498.89826543176,498.54124744532,498.51933641615,499.07100573793,498.41755854173,499.62355441896,498.82799968602,498.82799968602,496.93977080367,496.93977080367,0.029414368746627,3.671065111445e-06,-4.9850577554967e-08,0.0014511814238413,2.0871376696551e-06,-0.11777210188168,-0.036829994518205,-2.0149376473798e-08,3.4522762798341e-05,-1.2720862898155e-05,0.00029165235267388,5.5999478238806e-06,0.0014221521166009,0.1989130050271,0.00024963686416204,-0.00010498473250447,3.4974364450596e-05,3.162911016197e-06,-0.053227969711703,-0.016424030807023,-7.8218495193989e-11,1.2122557644711e-05,-2.0946363177052e-06,-0.00023939151202266,3.4861387157981e-05,1.872631178797e-05,6.6763938204396e-07,-0.13674618400278,-0.050494663178405,-4.76610893741e-07,3.0034050742476e-05,-1.6814786349618e-05,0.001030812285554,0.00034095541955315,-3.4276543124276e-08,0.10576392045615,0.00011884503779012,-1.6375648782935e-05,0.0009801952722029,0.18587559405836,0.00012260394059083,-0.00028880657626997,4.2549716888437e-07,-0.015378067049037,-1.320001536865e-05,0.036263640715557,1.2037178382967e-06,-0.0024506815364145,622.2308771991,622.2308771991,622.1954229922,622.1954229922,622.88217301252,622.45736017288,623.49655677762,622.83968274592,621.34034903392,621.32746800618,622.08350770374,621.55618797379,622.61177501554,623.5199572336,623.23534942843,624.01129583787,623.24644800764,622.29565538507,622.04747712888,623.03275161402,622.5817906893,621.25025186279,621.18107096984,622.61177501554,622.03824831081,621.6416969059,623.44580523074,622.85341921456,623.8666365304,623.07780959999,621.57553789746,621.67712621864,622.22046334598,621.65916555644,624.14666277128,623.88094973938,623.35618669655,624.24832344863,623.42137378408,623.06435579765,623.04244476847,623.59411409026,622.94066689405,624.14666277128,623.35110803834,623.35110803834,621.46287915599,621.46287915599,192.32688940328,0.0027149129572562,649.22714811644,-0.010402229430577,642.25982489621,-0.0090394650493287,0
2.84375e-05,807394772.89815,807301443.91999,809938411.37935,0.062463104089687,0.64760436919854,-0.22576307227148,50680959.775541,1.6033269871997e-06,8.4667688364223e-06,1.4203057009093e-06,1.0000023005687,497.69294938554,497.69294938554,497.66529633316,497.66529633316,498.33552618982,497.89978502477,498.96278000979,498.29681055571,496.80013579452,496.78403094503,497.55667857917,497.02400494961,498.07621064246,498.97837495248,498.68576454637,499.47731733761,498.70293280207,497.74729799639,497.49216384654,498.50083010197,498.04411291201,496.70740102689,496.63482324251,498.07621064246,497.51166838804,497.11092108214,498.90152072609,498.29546951441,499.33071095725,498.52990100703,497.03705536106,497.13683389073,497.69170948452,497.12504699114,499.60717607504,499.33944773078,498.8030755657,499.71295379036,498.87425503239,498.52351566152,498.4977253675,499.0605289742,498.40003045361,499.60717607504,498.79720842919,498.79720842919,496.9138477215,496.9138477215,0.055402990635008,9.858353052638e-06,-6.7327987362401e-08,0.0031243669993299,4.9778885557271e-06,-0.22867113772508,-0.070176050588837,-3.747262182918e-08,9.0738936300728e-05,-2.8871479833174e-05,0.0004280015830791,1.0072629066628e-05,0.0021076499403155,0.38859885170523,0.00041962079175027,-0.00021063742380194,5.9820413383212e-05,7.5219482234962e-06,-0.089015772755466,-0.032319095840205,-6.5264637342898e-11,3.8337295175397e-05,-4.9167999640883e-06,-0.00049067431516093,5.0441576787653e-05,4.2040818807993e-05,1.6045116323741e-06,-0.32673350837422,-0.095400641215645,-8.6964566564184e-07,7.950923573644e-05,-3.9469325529808e-05,0.0015279087221717,0.00061842331553423,-5.8340793675329e-08,0.20790653968227,0.00019979428946827,-3.2322268953197e-05,0.0015333703258256,0.35948041629876,0.00024104401207594,-0.00058685104497612,9.7957500928103e-07,-0.028851921032577,-2.325596473568e-05,0.067008584779759,2.8833162387817e-06,-0.0039406909818952,622.21893849345,622.21893849345,622.19128544107,622.19128544107,622.86151529772,622.42577413267,623.4887691177,622.82279966362,621.32612490242,621.31002005293,622.08266768708,621.54999405752,622.60219975037,623.50436406038,623.21175365427,624.00330644551,623.22892190997,622.2732871043,622.01815295445,623.02681920988,622.57010201992,621.23339013479,621.16081235041,622.60219975037,622.03765749594,621.63691019005,623.427509834,622.82145862232,623.85670006516,623.05589011494,621.56304446897,621.66282299863,622.21769859243,621.65103609904,624.13316518295,623.86543683868,623.32906467361,624.23894289827,623.40024414029,623.04950476942,623.02371447541,623.58651808211,622.92601956151,624.13316518295,623.32319753709,623.32319753709,621.4398368294,621.4398368294,389.54252030625,0.0028395529613861,678.94204686197,-0.01143637283782,671.69060418668,-0.0099298870187128,0
2.90625e-05,807373710.50782,807233406.7986,809881993.07942,0.062463104089687,0.64760436919854,-0.22576307227148,189422820.47596,1.6397909416933e-06,8.6529128608781e-06,1.4604536270875e-06,1.0000032323454,497.67904382485,497.67904382485,497.65908536674,497.65908536674,498.31378341741,497.86078091281,498.95288705585,498.27886359691,496.78427526906,496.76533986619,497.55321338773,497.0158148553,498.06514303804,498.96076137818,498.66031932907,499.46703209429,498.68444696809,497.72401202869,497.45926791882,498.49279637271,498.03119376375,496.68931465746,496.6132764546,498.06514303804,497.50842537601,497.10410983489,498.88180637075,498.25168711084,499.31867261959,498.50654764528,497.02259925347,497.12131922569,497.68661457675,497.11494265315,499.59159691748,499.32188917645,498.7729751232,499.70119146293,498.85214393424,498.50666916978,498.47776182672,499.05088087379,498.38406760763,499.59159691748,498.76599391807,498.76599391807,496.88972225266,496.88972225266,0.076352400718545,1.6074971740638e-05,-7.6190958697034e-08,0.0045151875581634,7.6068331141958e-06,-0.32895540923913,-0.097789394604668,-4.6383538473483e-08,0.00014602814256349,-5.0644998413626e-05,0.00053238308817107,1.3293952057741e-05,0.0026391323019759,0.5473310840101,0.00052110074045311,-0.00030316566672983,0.000103328436972,1.1468170833365e-05,-0.12223218996929,-0.045563235153904,5.4804523610234e-11,5.9831825610717e-05,-8.6347267084037e-06,-0.0006775150842052,6.1820823345864e-05,6.112164451468e-05,2.4672659445149e-06,-0.80139457376885,-0.13230392222661,-1.077834509463e-06,0.00012857227328971,-8.8141608924224e-05,0.0019177451262513,0.00082749177565867,-7.2019178913798e-08,0.29310517671348,0.00024800424394089,-4.5606807252102e-05,0.0022361401968669,0.50401660526311,0.00030405980737255,-0.0008529076519595,2.0930307203763e-06,-0.039677894822729,-2.8872585776982e-05,0.087317304556933,4.4202204846192e-06,-0.0056573613176224,622.21117281424,622.21117281424,622.19121435614,622.19121435614,622.8459124068,622.39290990221,623.48501604525,622.81099258631,621.31640425846,621.29746885559,622.08534237713,621.5479438447,622.59727202744,623.49289036758,623.19244831847,623.99916108369,623.21657595749,622.25614101809,621.99139690822,623.02492536211,622.56332275315,621.22144364686,621.145405444,622.59727202744,622.04055436541,621.63623882429,623.41393536015,622.78381610024,623.85080160899,623.03867663468,621.55472824287,621.65344821509,622.21874356615,621.64707164255,624.12372590688,623.85401816585,623.3051041126,624.23332045233,623.38427292364,623.03879815918,623.00989081611,623.58300986319,622.91619659703,624.12372590688,623.29812290747,623.29812290747,621.42185124206,621.42185124206,1835.7767981749,0.0029018678597805,693.68111243828,-0.011909769779249,686.31611649772,-0.010232195941252,0
2.921875e-05,807367039.46126,807216558.22213,809871171.75485,0.062463104089687,0.64760436919854,-0.22576307227148,193747395.29792,1.6489917407118e-06,8.6994394217484e-06,1.4696713032959e-06,1.0000034620325,497.67447573452,497.67447573452,497.65761146888,497.65761146888,498.30806801264,497.85573403552,498.94997831755,498.27591670655,496.7795691741,496.7625654505,497.55209790703,497.01352039186,498.06304287591,498.95474778873,498.65648701113,499.46366839775,498.68029773412,497.71854679875,497.4544675396,498.49061951905,498.02886510279,496.68466391786,496.60987081811,498.06304287591,497.50734077306,497.10237342009,498.87607548199,498.24654714574,499.31491327762,498.50295415477,497.01788333814,497.11901530807,497.68528264998,497.11188205444,499.58642246136,499.31590985332,498.76861142905,499.69712296399,498.84802320125,498.50094832194,498.47457394081,499.04814580529,498.37978644131,499.58642246136,498.76150060251,498.76150060251,496.88513999449,496.88513999449,0.084000593797338,1.8165530318971e-05,-7.8828669907269e-08,0.0049848395011013,8.5102901883966e-06,-0.3243042156781,-0.10740520483833,-4.909283293294e-08,0.00016447041155289,-5.6147047086952e-05,0.00058350076158698,1.4341075457251e-05,0.0029373598499356,0.60582530472272,0.00054785724753643,-0.00034760255555742,0.00011443527961768,1.2789895425582e-05,-0.12815130001501,-0.050085262455969,9.0010276083356e-11,6.8633269998928e-05,-9.5694075781168e-06,-0.00080680758895408,6.6767210290731e-05,6.7443957829582e-05,2.7701812026402e-06,-0.58282999133623,-0.14539275646862,-1.1399360724681e-06,0.00014498182537678,-9.3927804778198e-05,0.0021229611727502,0.00089924384270672,-7.6608962658904e-08,0.32397981325461,0.00026141746555032,-5.1406115282492e-05,0.0024210140753563,0.55771387749901,0.00030534352612676,-0.00099154178203651,2.3755080423562e-06,-0.043542937770333,-3.0508556852475e-05,0.086650237118387,4.9156845788641e-06,-0.0060631043411984,622.20737215348,622.20737215348,622.19050788784,622.19050788784,622.8409644316,622.38863045449,623.48287473652,622.80881312551,621.31246559307,621.29546186946,622.08499432599,621.54641681083,622.59593929487,623.4876442077,623.18938343009,623.99656481671,623.21319415308,622.25144321772,621.98736395856,623.02351593802,622.56176152175,621.21756033682,621.14276723708,622.59593929487,622.04023719202,621.63526983905,623.40897190095,622.7794435647,623.84780969658,623.03585057373,621.55077975711,621.65191172703,622.21817906895,621.6447784734,624.11931888032,623.84880627228,623.30150784801,624.23001938295,623.38091962021,623.0338447409,623.00747035977,623.58104222426,622.91268286027,624.11931888032,623.29439702147,623.29439702147,621.41803641346,621.41803641346,4554.4762295842,0.0029174457297363,697.38126618507,-0.012055288128055,689.97639081579,-0.010361050500776,0
2.953125e-05,807352074.60653,807174995.63194,809841669.66492,0.062463104089687,0.64760436919854,-0.22576307227148,196070210.53984,1.6650358608063e-06,8.7925011846071e-06,1.4895424720759e-06,1.0000039904097,497.66427123529,497.66427123529,497.65397770507,497.65397770507,498.29410940656,497.83800733627,498.94321667828,498.26732986539,496.76858482156,496.75372550675,497.54958419057,497.00818826951,498.05724201882,498.94139146465,498.64453343235,499.45611755559,498.66980655943,497.70454591014,497.43868224478,498.48543997635,498.02240634413,496.67319767756,496.59930694886,498.05724201882,497.50494116354,497.09821978571,498.86260868944,498.22798962149,499.30632369157,498.49205942981,497.00724627446,497.11174354984,497.6820542541,497.10491666847,499.5748115187,499.3026047792,498.7546887142,499.68812815931,498.83671504782,498.48824188688,498.46496476726,499.04172144773,498.36964314655,499.5748115187,498.7471895689,498.7471895689,496.87216427008,496.87216427008,0.096523331427837,2.3127604908743e-05,-3.8680005183153e-08,0.0058829210426561,1.0407633063222e-05,-0.37420246738054,-0.12323501803741,-5.4129130321071e-08,0.00020782799586073,-6.2989257427804e-05,0.00048076154806678,1.6205564633953e-05,0.0028899753739757,0.70439508060955,0.00059453569374296,-0.00023949401869792,0.00013683054408972,1.5624149141734e-05,-0.13744371443089,-0.058074099116165,1.9323713945339e-10,9.0475166161835e-05,-1.2555795873584e-05,-0.00083109131734197,5.0397384687854e-05,8.0144281866236e-05,3.3990628025763e-06,-0.67266689776757,-0.16581291080108,-1.2574707413425e-06,0.0001836649667882,-8.6932891579911e-05,0.0018803090122063,0.001020440276566,2.0388444334293e-08,0.37757049060108,0.00028607307990922,-2.9458951200169e-05,0.0027893193539528,0.64627674879946,0.00032518247946567,-0.00079763147468526,2.9261569901426e-06,-0.049027160947406,-3.357983005023e-05,0.090262632124965,5.9954135386282e-06,-0.0065308865697202,622.20001701636,622.20001701636,622.18972348614,622.18972348614,622.82985518764,622.37375311734,623.47896245935,622.80307564646,621.30433060264,621.28947128782,622.08532997164,621.54393405058,622.5929877999,623.47713724572,623.18027921342,623.99186333666,623.2055523405,622.24029169122,621.97442802585,623.02118575742,622.5581521252,621.20894345863,621.13505272993,622.5929877999,622.04068694461,621.63396556678,623.39835447051,622.76373540256,623.84206947264,623.02780521088,621.54299205553,621.64748933091,622.21780003517,621.64066244954,624.11055729977,623.83835056027,623.29043449527,624.22387394038,623.37246082889,623.02398766796,623.00071054834,623.5774672288,622.90538892762,624.11055729977,623.28293534997,623.28293534997,621.40791005115,621.40791005115,3660.6222242069,0.00294860082369,704.74572965166,-0.012343859693569,697.28125557748,-0.010614918293406,0
3.015625e-05,807316425.13232,807075480.26609,809769741.85462,0.062463104089687,0.64760436919854,-0.22576307227148,236296984.68211,1.7027941223697e-06,8.978617031547e-06,1.524360468798e-06,1.0000053508161,497.64024658785,497.64024658785,497.64522019341,497.64522019341,498.26132650241,497.79363362986,498.92739489062,498.24661239025,496.74281699602,496.7327190969,497.54375693356,496.99538599028,498.04326865421,498.91024850529,498.61637823141,499.43851019566,498.64451164946,497.67161031649,497.40145472397,498.47322044119,498.00667838039,496.64618548298,496.57436026987,498.04326865421,497.49937257031,497.088169776,498.83108592112,498.18044264484,499.28631483146,498.46617492705,496.98236442166,497.09431065742,497.67443668672,497.08833336122,499.54782901826,499.27164106358,498.72223448493,499.66726431292,498.80958663278,498.45853464223,498.44205043427,499.02657145979,498.34533211641,499.54782901826,498.71396346314,498.71396346314,496.84163392682,496.84163392682,0.12642252194962,3.7167984841769e-05,-2.899696764734e-08,0.0078543547532874,1.5349218919389e-05,-0.40181260130792,-0.15586294327802,-6.2731477456507e-08,0.00032831905576143,-0.00014866370162607,0.00052060108881594,2.0406981459946e-05,0.0031253798267259,0.94574207629717,0.00070226974487435,-0.00030490445752668,0.00019263943287486,2.3020338254765e-05,-0.1649441547744,-0.074787170406622,5.6786438113341e-10,0.0001495706821665,-2.5595944425869e-05,-0.0010842898197056,5.400590452528e-05,0.00010894931896446,5.0465337131741e-06,-0.86601730851285,-0.20793745786119,-1.4729830165903e-06,0.00029186053148156,-0.00023952237041225,0.0020476104153175,0.0013008087155434,4.5566654168304e-08,0.50940298107248,0.00033640732885945,-3.6882705823534e-05,0.0038095933470327,0.86164304778597,0.00042617725623364,-0.0010330336725384,4.4423914637775e-06,-0.059553447370216,-3.9463300358197e-05,0.12392842690157,8.9862217358208e-06,-0.0077544617406634,622.18449880569,622.18449880569,622.18947241125,622.18947241125,622.80557872025,622.3378858477,623.47164710846,622.79086460809,621.28706921386,621.27697131474,622.0880091514,621.53963820812,622.58752087205,623.45450072313,623.16063044925,623.98276241351,623.18876386731,622.21586253433,621.94570694181,623.01747265903,622.55093059823,621.19043770083,621.11861248771,622.58752087205,622.04362478815,621.63242199385,623.37533813896,622.72469486268,623.8305670493,623.01042714489,621.5266166395,621.63856287526,622.21868890456,621.63258557906,624.0920812361,623.81589328142,623.26648670278,624.21151653076,623.35383885062,623.00278686007,622.98630265211,623.57082367763,622.88958433425,624.0920812361,623.25821568098,623.25821568098,621.38588614466,621.38588614466,3505.4896505702,0.0030109078896684,719.44009639391,-0.012957614573164,711.81628271251,-0.011151503246641,0
3.046875e-05,807293138.79026,807015594.55573,809730556.28735,0.062463104089687,0.64760436919854,-0.22576307227148,243681169.86517,1.722652819902e-06,9.0716771718568e-06,1.5421462188327e-06,1.0000061052823,497.62443433388,497.62443433388,497.64010901544,497.64010901544,498.24140531353,497.77681200935,498.91755968151,498.23576614364,496.72649205366,496.72242063433,497.54012035618,496.98732372807,498.03565781692,498.88967253815,498.60250553918,499.42712580459,498.62952759689,497.65234174617,497.38470142771,498.46582981809,497.99816268042,496.62984358203,496.56188787525,498.03565781692,497.49585712981,497.08205313727,498.81133384713,498.1637575849,499.27360814869,498.4530877677,496.96612105794,497.08569626678,497.66991917731,497.07763777155,499.53028076614,499.25125427402,498.70683596431,499.65355859114,498.79456969886,498.43888511214,498.43032600946,499.0171721137,498.33013658588,499.53028076614,498.6982484187,498.6982484187,496.82518146166,496.82518146166,0.14756113709741,4.7013004977275e-05,-2.0626858323791e-08,0.0091527521498694,1.8804512916387e-05,-0.4688358399103,-0.1786317485118,-6.575769382512e-08,0.00041125906587046,-0.0002359185273972,0.00056222038884697,2.3025287041119e-05,0.0034266427135947,1.1182668408537,0.00075343759996372,-0.00035483089320172,0.00022404780255147,2.8072684799584e-05,-0.192352752762,-0.086181112879927,8.7328914820701e-10,0.00018942020929161,-4.523365266657e-05,-0.0013690208812677,5.7118425696808e-05,0.00012693798292977,6.2267692408971e-06,-0.73091087251519,-0.2379047861089,-1.5634834904751e-06,0.00036686605238628,-0.00033148306573986,0.0022403697110695,0.0014874279240284,6.7696867644724e-08,0.60234305178561,0.00036081706458815,-4.1746397463952e-05,0.0043511299078042,1.016556416568,0.00045766313249203,-0.0012315413932428,5.3075128648281e-06,-0.067146761903935,-4.2182734012129e-05,0.14872453796881,1.0930685498076e-05,-0.0089231981149562,622.1706211848,622.1706211848,622.18629586636,622.18629586636,622.78759216446,622.32299886028,623.46374653243,622.78195299457,621.27267890458,621.26860748526,622.0863072071,621.53351057899,622.58184466784,623.43585938908,623.1486923901,623.97331265552,623.17571444781,622.19852859709,621.93088827864,623.01201666902,622.54434953134,621.17603043296,621.10807472617,622.58184466784,622.04204398074,621.62823998819,623.35752069806,622.70994443583,623.81979499962,622.99927461862,621.51230790887,621.63188311771,622.21610602824,621.62382462248,624.07646761707,623.79744112494,623.25302281523,624.19974544206,623.34075654978,622.98507196307,622.97651286038,623.56335896463,622.8763234368,624.07646761707,623.24443526962,623.24443526962,621.37136831258,621.37136831258,3511.5934616967,0.0030420599647147,726.75487007444,-0.013260911677156,719.06660154991,-0.01140538032406,0
3.078125e-05,807264486.03128,806932021.69855,809668338.38082,0.062463104089687,0.64760436919854,-0.22576307227148,245340417.10122,1.7381034889072e-06,9.1647417291079e-06,1.561053230991e-06,1.0000070497379,497.60524874077,497.60524874077,497.6328214277,497.6328214277,498.21442929501,497.73926249092,498.90506485077,498.21611972135,496.7057895501,496.7025381851,497.5357377887,496.9767424472,498.02322738209,498.86522455731,498.57517424611,499.41333353923,498.60713231021,497.62446564891,497.35045876121,498.45603508681,497.983787787,496.60749025884,496.53864507739,498.02322738209,497.49170803486,497.07363558286,498.78601101262,498.12549449088,499.25793526839,498.42790143197,496.94643198732,497.06920688731,497.66381432249,497.06413114228,499.50923215071,499.22703215367,498.67515481461,499.6374138089,498.76925336915,498.41545218174,498.40854082127,499.00491832383,498.30963047561,499.50923215071,498.66565258397,498.66565258397,496.79796340605,496.79796340605,0.16737862277434,2.9454278764602e-05,-1.5575933793749e-09,0.011074035768498,2.1904888916281e-05,-0.63131094865136,-0.20381008122425,-5.2475576819755e-08,0.00018180758277896,-0.00044263850610106,0.00058374918919602,2.5951265484863e-05,0.0035779010045293,1.3094729020321,0.00096260996642347,-0.00039904508972522,0.00026062148622328,3.2902521375246e-05,-0.20647186096642,-0.099457198634843,2.4096132882878e-09,5.219083293524e-05,-0.00012923642976523,-0.0017542656053081,5.841064964841e-05,0.00015858054215742,7.2287951748542e-06,-1.2218218823725,-0.27140273839528,-1.3625281608598e-06,0.00018239033611013,-0.00031644731039455,0.0023462508981568,0.0016527525099902,8.4507862829567e-08,0.71081698625666,0.0004582307464487,-4.617970248365e-05,0.0047435073492317,1.1780629032432,0.00064578482577956,-0.0014089827587059,6.2916568167708e-06,-0.075995112562442,-4.2070712453672e-05,0.16562719394856,1.2731439076884e-05,-0.009671265194063,622.1558130484,622.1558130484,622.18338573533,622.18338573533,622.76499360264,622.28982679855,623.4556291584,622.76668402898,621.25635385773,621.25310249273,622.08630209633,621.52730675483,622.57379168972,623.41578886494,623.12573855374,623.96389784686,623.15769661784,622.17502995654,621.90102306884,623.00659939444,622.53435209463,621.15805456647,621.08920938502,622.57379168972,622.04227234249,621.62419989049,623.33657532025,622.67605879851,623.80849957602,622.9784657396,621.49699629495,621.61977119494,622.21437863012,621.61469544991,624.05979645834,623.7775964613,623.22571912224,624.18797811653,623.31981767678,622.96601648937,622.9591051289,623.55548263146,622.86019478324,624.05979645834,623.2162168916,623.2162168916,621.34852771368,621.34852771368,1457.4564699197,0.0030732120405512,734.05321964308,-0.013375747713544,726.26339047773,-0.011572950603192,0
3.109375e-05,807223309.18476,806831554.63182,809610998.62853,0.062463104089687,0.64760436919854,-0.22576307227148,246455378.00279,1.7534923775561e-06,9.257820040803e-06,1.5824547119096e-06,1.0000082659627,497.57451580062,497.57451580062,497.62541300525,497.62541300525,498.17962450208,497.69302903571,498.88961282303,498.1981253331,496.6755690937,496.68486353761,497.53050799497,496.96255146685,498.01125036195,498.82474403499,498.54880301745,499.39391744311,498.58034321176,497.59103672652,497.31468696938,498.44499527641,497.97051356376,496.57845792945,496.51669885981,498.01125036195,497.48673500403,497.06358103705,498.75113474305,498.06914946467,499.23698212314,498.40432586123,496.91524789935,497.05504220687,497.65712999835,497.04440571329,499.47798491647,499.18809129658,498.64299080991,499.61346001912,498.74238665839,498.37636500882,498.38811490784,498.98941496816,498.28161624351,499.47798491647,498.63224517036,498.63224517036,496.76916774642,496.76916774642,0.18785242943041,4.03745794036e-05,4.3127755336547e-08,0.012632980857978,2.6391124294722e-05,-0.52322839360403,-0.23047679206895,-3.8880308895669e-08,0.0002440375493638,-1.4703488765487e-05,0.0006122660648926,2.8439620954028e-05,0.003893267343533,1.6811256443462,0.00080437655520876,-0.00045012671847851,0.00032454219728211,3.9569632235931e-05,-0.22012362991392,-0.11304578973511,3.7136880861059e-09,7.554919698881e-05,-1.7079674071495e-05,-0.0021018624046947,5.9740134819848e-05,0.00017805081959809,8.7651732367786e-06,-2.1882437985569,-0.30587371268234,-1.2518422558184e-06,0.00024674856099721,0.0002027257500041,0.0024936906403906,0.0018264890667971,1.2215526781946e-07,0.82976849093664,0.00040071258653609,-5.1178605295425e-05,0.0057073881975265,1.5038921933923,0.00041506428945515,-0.001610032522008,8.0675268651889e-06,-0.084422913100697,-4.0491273931894e-05,0.15037398023322,1.58155804455e-05,-0.010647385407381,622.1376784322,622.1376784322,622.18857563683,622.18857563683,622.74278713366,622.25619166729,623.45277545461,622.76128796468,621.23873172528,621.24802616919,622.09367062655,621.52571409843,622.57441299352,623.38790666656,623.11196564902,623.95708007469,623.14350584334,622.1541993581,621.87784960095,623.00815790799,622.53367619534,621.14162056103,621.07986149139,622.57441299352,622.0498976356,621.62674366863,623.31429737463,622.63231209625,623.80014475472,622.96748849281,621.47841053093,621.61820483845,622.22029262993,621.60756834487,624.04114754805,623.75125392815,623.20615344149,624.1766226507,623.30554928997,622.9395276404,622.95127753942,623.55257759974,622.84477887508,624.04114754805,623.19540780194,623.19540780194,621.332330378,621.332330378,4119.4951859475,0.0031043624586537,741.265077905,-0.013707194211333,733.40132534423,-0.011865364860674,0
3.125e-05,807204157.83512,806790007.79274,809591183.63645,0.062463104089687,0.64760436919854,-0.22576307227148,1475843835.9076,1.7621590407857e-06,9.3043495640309e-06,1.5917876437877e-06,1.0000087992551,497.55972892716,497.55972892716,497.62234026591,497.62234026591,498.1645442016,497.68745244147,498.88234982329,498.19335059118,496.66166813006,496.68091992658,497.52786444622,496.95634230733,498.00731673488,498.80233627834,498.54315295239,499.38459167158,498.57018365083,497.57770774887,497.3080302067,498.43997488301,497.96640758864,496.56612588256,496.51125449839,498.00731673488,497.48415055748,497.05935240521,498.73510117159,498.06348927721,499.22696642267,498.39894577064,496.9002192796,497.0518467739,497.65418182687,497.03547578073,499.46278685541,499.16814081103,498.6370011829,499.60169730891,498.73400209727,498.35501425446,498.38300835962,498.98244218123,498.26958172135,499.46278685541,498.62622137506,498.62622137506,496.75988944969,496.75988944969,0.20257571899228,4.7262428844353e-05,5.6793410265056e-08,0.013596624183472,2.9197001380633e-05,-0.52291612234267,-0.2457578946733,-3.297622447881e-08,0.00028163040694255,1.5277040886889e-05,0.00064137467043701,3.0284643354886e-05,0.0041288728999894,1.8867407489946,0.00083459247303247,-0.00048951213919589,0.00034507800205354,4.3652685534659e-05,-0.23453079510183,-0.12093309874157,4.3134886801529e-09,9.0700176412544e-05,-5.2996067485652e-07,-0.0023111305383319,6.1588884556243e-05,0.00019117882080069,9.7397695583062e-06,-0.79949659943143,-0.32592763137019,-1.201567156549e-06,0.00028619905799329,0.00023439837779674,0.0026376004864494,0.0019609594534638,1.4235943630234e-07,0.88155391287805,0.00041635329882915,-5.480689343718e-05,0.006108476936004,1.5930185651383,0.00042407925733418,-0.0017686288445243,8.5987783781947e-06,-0.089082725723212,-4.0989376108091e-05,0.16186043579502,1.760315486597e-05,-0.011189894044304,622.1526341161,622.1526341161,622.21524545485,622.21524545485,622.75744939054,622.28035763041,623.47525501223,622.78625578012,621.254573319,621.27382511552,622.12076963516,621.54924749628,622.60022192382,623.39524146728,623.13605814133,623.97749686052,623.16308883977,622.17061293781,621.90093539564,623.03288007195,622.55931277758,621.1590310715,621.10415968733,622.60022192382,622.07705574642,621.65225759416,623.32800636053,622.65639446615,623.81987161162,622.99185095958,621.49312446855,621.64475196284,622.24708701581,621.62838096967,624.05569204435,623.76104599997,623.22990637184,624.19460249785,623.32690728621,622.9479194434,622.97591354856,623.57534737017,622.86248691029,624.05569204435,623.219126564,623.219126564,621.35279463863,621.35279463863,8509.5527466786,0.0031199371070171,744.89328209214,-0.013882508889907,736.98798533655,-0.012020278140168,0
3.140625e-05,807185347.1005,806748615.11927,809570242.04995,0.062463104089687,0.64760436919854,-0.22576307227148,1475198214.0774,1.7698168814804e-06,9.3508776456016e-06,1.601796353907e-06,1.0000093395284,497.54673636423,497.54673636423,497.6190817948,497.6190817948,498.15012009338,497.68118975974,498.87494296157,498.18828947959,496.64893593865,496.67671604343,497.52508271493,496.95033490135,498.00320537934,498.78499503326,498.53720027404,499.37542550079,498.56040070655,497.56473334516,497.30093763222,498.43473756097,497.96205513462,496.55441214993,496.50557512625,498.00320537934,497.48141963103,497.05512128046,498.71996512492,498.05758869648,499.216991256,498.39323672324,496.88691454312,497.04840012916,497.65109180939,497.02708607864,499.44843679677,499.15114078231,498.63064532329,499.59032613606,498.72563980523,498.33849656536,498.37765382702,498.97546085953,498.2583967988,499.44843679677,498.61979275993,498.61979275993,496.75055579013,496.75055579013,0.22099787946279,5.1142147821611e-05,7.2295591829214e-08,0.013933928865203,3.2788176832199e-05,-0.54472433616465,-0.25531934657034,-2.1668039125896e-08,0.00030801410661484,1.557608049496e-05,0.00064668040500289,3.212510589192e-05,0.0040433519684642,1.8165004944546,0.001077218119807,-0.00050932655407727,0.00036401622797031,4.8931075353933e-05,-0.24586234069884,-0.12524390185752,5.3561460052214e-09,0.00010185607204201,-4.3110601181314e-07,-0.002420995981146,6.1481468428672e-05,0.00019422270827692,1.095347321605e-05,-0.76999655776282,-0.33887233931614,-1.133443146568e-06,0.00031187765183625,0.00024256368491547,0.002669946582346,0.0021142303725521,1.6741097329945e-07,0.96739840635007,0.00048879547529607,-5.6497916130054e-05,0.0064800991260098,1.608306117555,0.0008037537088299,-0.0018514189434179,9.0738973325282e-06,-0.090240137765582,-4.1934251677376e-05,0.17252511408934,1.9696626511534e-05,-0.011606682747093,622.14053746497,622.14053746497,622.21288289554,622.21288289554,622.74392119412,622.27499086047,623.46874406231,622.78209058033,621.24273703939,621.27051714416,622.11888381567,621.54413600208,622.59700648008,623.378796134,623.13100137478,623.96922660153,623.15420180729,622.15853444589,621.89473873295,623.0285386617,622.55585623535,621.14821325067,621.09937622699,622.59700648008,622.07522073177,621.6489223812,623.31376622566,622.65138979722,623.81079235674,622.98703782398,621.48071564386,621.6422012299,622.24489291013,621.62088717938,624.04223789751,623.74494188305,623.22444642403,624.18412723679,623.31944090597,622.9322976661,622.97145492776,623.56926196026,622.85219789953,624.04223789751,623.21359386067,623.21359386067,621.34435689087,621.34435689087,9054.3008688485,0.0031355115572263,748.52300634077,-0.014025886283896,740.57892650054,-0.012156019469283,0
3.171875e-05,807133412.32598,806640315.53958,809523754.1968,0.062463104089687,0.64760436919854,-0.22576307227148,1473907572.9605,1.7892248330004e-06,9.4439385585283e-06,1.6176548513169e-06,1.0000105930597,497.50866107974,497.50866107974,497.61186791723,497.61186791723,498.11133212727,497.66759556119,498.85676942745,498.17686317906,496.61282085367,496.66730967647,497.51874880075,496.93403059821,497.99353057304,498.73416890861,498.52323150792,499.35115716505,498.53381643146,497.53049640779,497.28477396164,498.42256356137,497.95231735347,496.52234354278,496.49222866281,497.99353057304,497.47530524758,497.04435794568,498.67872626456,498.04498365753,499.19137646979,498.38023235189,496.84824289787,497.04089846455,497.64393661235,497.0034223258,499.4091064443,499.10203058224,498.61580556548,499.55965250095,498.70403854182,498.28964606132,498.36504520827,498.95749630201,498.22681077079,499.4091064443,498.60494895102,498.60494895102,496.72703622125,496.72703622125,0.24799338959436,6.2821438361329e-05,1.1026308588681e-07,0.015325052117627,3.3221979012369e-05,-0.59513068041684,-0.27587849759573,-8.114430049156e-09,0.00037043713182137,1.5734493730495e-05,0.00063137954771553,3.497303642306e-05,0.0041323948120852,2.2372759621159,0.00079557601042862,-0.00052375862042689,0.00040711476250067,5.1343780669332e-05,-0.26692473821182,-0.13611666651782,6.8489121634152e-09,0.00012623474353899,-4.0610887001483e-07,-0.0025179900419958,5.8968038464453e-05,0.00021480169979386,1.0804357461524e-05,-0.80089373863333,-0.36566315599515,-1.0310033587826e-06,0.00037780544184903,0.00024922512468673,0.0026318647012278,0.0023341095970587,1.6462378411553e-07,1.1321975122707,0.0004019402766046,-5.7343258482326e-05,0.0073012274763982,1.9517913652421,0.00039211689136942,-0.0019203155050614,1.0246542760622e-05,-0.095256867224503,-4.0959526374527e-05,0.19487693578946,2.2193788671482e-05,-0.012397651924323,622.10545907002,622.10545907002,622.20866590751,622.20866590751,622.70813011754,622.26439355147,623.45356741773,622.77366116934,621.20961884394,621.26410766675,622.11554679103,621.53082858849,622.59032856332,623.33096689889,623.12002949819,623.94795515533,623.13061442174,622.12729439807,621.88157195192,623.01936155165,622.54911534375,621.11914153305,621.08902665309,622.59032856332,622.07210323786,621.64115593596,623.27552425484,622.64178164781,623.78817446007,622.97703034216,621.44504088815,621.63769645483,622.24073460263,621.60022031608,624.00590443457,623.69882857252,623.21260355575,624.15645049122,623.30083653209,622.88644405159,622.96184319855,623.55429429229,622.82360876107,624.00590443457,623.2017469413,623.2017469413,621.32383421152,621.32383421152,1746.9822264009,0.0031666595922107,755.72896636992,-0.014369479665335,747.70691773693,-0.01245752657848,0
3.203125e-05,807083723.09612,806533519.99025,809474558.68872,0.062463104089687,0.64760436919854,-0.22576307227148,1472618224.4722,1.8054784898961e-06,9.5369992534145e-06,1.6356533463816e-06,1.000012023305,497.47186093674,497.47186093674,497.60430242625,497.60430242625,498.07312071449,497.65293614138,498.83845563967,498.16480767669,496.57783025713,496.65735727751,497.51226569544,496.91825802718,497.98363148708,498.67874994531,498.50875117094,499.32743813968,498.50789306701,497.49662466836,497.26773903392,498.41003177498,497.94204163333,496.49106613534,496.47839948654,497.98363148708,497.46899375117,497.03370249518,498.63818855331,498.03129993282,499.16598117149,498.36653475551,496.81077250496,497.03288973709,497.63664071721,496.98075602573,499.37064207889,499.05266483863,498.60035530588,499.52976127356,498.68255129387,498.23860494128,498.35203681949,498.93978664474,498.19633267445,499.37064207889,498.58939216668,498.58939216668,496.70338560944,496.70338560944,0.28403673329891,6.1824500634914e-05,1.5359533438194e-07,0.017072533922777,3.8871047131055e-05,-0.66627897331152,-0.30040773608277,7.9038230416096e-09,0.00049931521547907,1.572454997003e-05,0.00064099220229908,3.9158192736736e-05,0.0042850052679966,2.8025751635253,0.00080654579153345,-0.0005579553875071,0.00045091111221558,5.8266386596789e-05,-0.29659414709309,-0.14915783269815,8.7440955846149e-09,0.00020838301602473,-4.6447675428153e-07,-0.0027209363330259,5.8357048374175e-05,0.00024239271153131,1.3720410649736e-05,-0.87626290362442,-0.39774069246323,-8.6643895872443e-07,0.0004575205089794,0.00026146586210767,0.002708056770291,0.0026456783654692,3.3706806409526e-07,1.2819915969663,0.00041812503138134,-5.9797402821618e-05,0.0081646934815164,2.0860047500164,0.00036729690957103,-0.0020736697367427,1.1176909289797e-05,-0.099465675865458,-4.1503923238917e-05,0.22091845312319,2.5708925990416e-05,-0.013527520094677,622.0733561496,622.0733561496,622.20579763911,622.20579763911,622.67461592735,622.25443135424,623.43995085253,622.76630288955,621.17932546999,621.25885249036,622.11376090829,621.51975324004,622.58512669994,623.28024515817,623.1102463838,623.92893335254,623.10938827987,622.09811988122,621.86923424678,623.01152698783,622.54353684619,621.0925613482,621.07989469939,622.58512669994,622.07048896403,621.63519770803,623.23968376616,622.63279514567,623.76747638435,622.96802996836,621.41226771782,621.63438494995,622.23813593007,621.58225123859,623.97213729175,623.65416005149,623.20185051874,624.13125648642,623.28404650673,622.84010015413,622.95353203234,623.5412818576,622.7978278873,623.97213729175,623.19088737953,623.19088737953,621.3048808223,621.3048808223,7036.4699475171,0.0031978067839456,762.89089448336,-0.014688821720231,754.79136720632,-0.01275693034822,0
3.2109375e-05,807070299.1739,806504544.75046,809460989.29909,0.062463104089687,0.64760436919854,-0.22576307227148,1472296248.9367,1.8111444674592e-06,9.5602694394214e-06,1.6506854254086e-06,1.0000123886636,497.46259088553,497.46259088553,497.60222484747,497.60222484747,498.06308369586,497.64883967872,498.83349586623,498.16147110276,496.56881449328,496.65458484385,497.51049618053,496.91404962291,497.98090924539,498.66656292112,498.50474595592,499.3211135508,498.50100351418,497.48762032138,497.26301695537,498.40661064941,497.93920331672,496.48283556997,496.47458170932,497.98090924539,497.46727045221,497.03082290406,498.62764233136,498.02746651285,499.15917485726,498.36273947842,496.80130698417,497.03065049473,497.63464526905,496.97479869878,499.36064440629,499.04069926733,498.59607706996,499.52187116101,498.67674083862,498.22695412641,498.34844445695,498.93501641027,498.18839071103,499.36064440629,498.58508013382,498.58508013382,496.69697172548,496.69697172548,0.31042320203345,6.4486105567374e-05,1.660319826233e-07,0.017905989456716,0.00023361926823596,-0.70594656887763,-0.31735233971703,1.2426520525817e-08,0.00051473471193184,1.6871709437406e-05,0.00068206878700553,5.1330628934951e-05,0.0046929450173665,2.6306998981449,0.00084284345444367,-0.00061138387662459,0.00046819534588564,0.0002651540426036,-0.31840356042845,-0.15723899187091,9.250445793843e-09,0.00020607601905052,1.2459286233035e-07,-0.003026350148576,6.0566666786903e-05,0.00025067134051048,0.00010078298793383,-0.91445823842374,-0.42084792172295,-8.5414269832699e-07,0.00047367726027291,0.00028436173413988,0.0029320611619052,0.003137601576438,3.14931194722e-06,1.345147810818,0.00043682218586682,-6.4241497502124e-05,0.0084958293615795,2.2151201816843,0.0003681579583629,-0.0023020322181751,1.1688940487895e-05,-0.10595172768846,-4.3057087908361e-05,0.2306950966633,6.4674022907548e-05,-0.015046702334075,622.06464765796,622.06464765796,622.2042816199,622.2042816199,622.66514046829,622.25089645115,623.43555263866,622.76352787519,621.17087126571,621.25664161628,622.11255295296,621.51610639534,622.58296601782,623.26861969355,623.10680272835,623.92317032323,623.10306028661,622.08967709381,621.8650737278,623.00866742184,622.54126008915,621.0848923424,621.07663848175,622.58296601782,622.06932722464,621.63287967649,623.22969910379,622.62952328528,623.76123162969,622.96479625085,621.4033637566,621.63270726716,622.23670204148,621.57685547121,623.96270117872,623.64275603976,623.19813384239,624.12392793344,623.27879761105,622.82901089884,622.95050122938,623.5370731827,622.79044748346,623.96270117872,623.18713690625,623.18713690625,621.29902849791,621.29902849791,7836.0159268134,0.003205593774862,764.65857670907,-0.014696539990992,756.55791414007,-0.012764805619622,0
3.2265625e-05,807041954.28119,806443271.90231,809432258.39146,0.062463104089687,0.64760436919854,-0.22576307227148,1471652504.2542,1.8151727437311e-06,9.6068513820947e-06,1.6724589814744e-06,1.0000131789322,497.44294228957,497.44294228957,497.59783108539,497.59783108539,498.04185849619,497.64017813854,498.82303368552,498.15441236278,496.54970964306,496.64870970802,497.50675963977,496.90511815939,497.97516103214,498.6407764776,498.4962809615,499.30776385935,498.4864134293,497.46857294789,497.25302851976,498.39939516542,497.93319865169,496.46540027566,496.46649279542,497.97516103214,497.4636294714,497.02471183329,498.6053467469,498.01936332766,499.14481000431,498.35471093065,496.78124450758,497.02590897968,497.63043275081,496.96216097145,499.33952019773,499.01538430223,498.5870325247,499.50521093995,498.66444195724,498.20226295254,498.34085447929,498.92495012567,498.17156492539,499.33952019773,498.57596069734,498.57596069734,496.68339440006,496.68339440006,0.32324674752531,7.5209318833685e-05,1.621576060081e-07,0.020292642624002,0.00025667652111286,-0.78711139420342,-0.36765265416601,3.7411828040207e-08,0.00061294127958723,6.5244278470611e-06,0.0006715391155287,5.0098002766917e-05,0.0046698990910049,2.7042126607131,0.00090114416609652,-0.00059889639898839,0.00061757736629666,0.00027737032809101,-0.34153126879692,-0.18500838502785,1.1746320498137e-08,0.00026119595665363,-3.1055562539554e-06,-0.0030252137559272,5.9304837364926e-05,0.0002712188518688,0.00011692722073108,-1.0794205174449,-0.47843318812206,-5.7477941269367e-07,0.0005601020867179,0.00026768197983011,0.002906724791654,0.0031563314290994,4.1248992108797e-06,1.4452884098944,0.00046062455221439,-6.1839222956937e-05,0.010831996245371,2.3469375967718,0.00043551901668808,-0.0022819587498906,1.5431610512625e-05,-0.12603283524157,-4.1418456223781e-05,0.27881846394561,6.3710291560296e-05,-0.015052668470538,622.04613237669,622.04613237669,622.20102117251,622.20102117251,622.64504858331,622.24336822566,623.42622377264,622.7576024499,621.15289973018,621.25189979514,622.10994972689,621.50830824651,622.57835111926,623.24396656472,623.09947104862,623.91095394647,623.08960351642,622.07176303501,621.85621860688,623.00258525254,622.53638873881,621.06859036278,621.06968288254,622.57835111926,622.06681955852,621.62790192041,623.20853683402,622.62255341478,623.74800009143,622.95790101777,621.3844345947,621.6290990668,622.23362283793,621.56535105857,623.94271028485,623.61857438935,623.19022261182,624.10840102707,623.26763204436,622.80545303966,622.94404456641,623.52814021279,622.77475501251,623.94271028485,623.17915078446,623.17915078446,621.28658448718,621.28658448718,2604.0303807708,0.0032211680452282,768.12893779748,-0.014729414977101,760.07477271506,-0.012688561975223,0
3.2578125e-05,806969479.06286,806280943.41574,809332074.6927,0.062463104089687,0.64760436919854,-0.22576307227148,1470366858.7844,1.831804760853e-06,9.6999187448141e-06,1.6916360924425e-06,1.0000149933002,497.39217244811,497.39217244811,497.57698781395,497.57698781395,497.98132440499,497.61734899239,498.78155082806,498.13120564968,496.50025867481,496.63400517626,497.48830206855,496.87964130766,497.95657739546,498.57026392527,498.4748160509,499.26398789878,498.44900712504,497.41605609893,497.22686720874,498.36727699897,497.91072535181,496.42032172119,496.44652308408,497.95657739546,497.44445603402,497.00422089679,498.53970440284,497.9979848854,499.09360746726,498.33101465841,496.72927246326,497.0130230958,497.61233453162,496.92874362917,499.27417107028,498.94371651777,498.56448372242,499.45156770283,498.6328620951,498.13653167539,498.32057279067,498.89152121917,498.12834688406,499.27417107028,498.55223572289,498.55223572289,496.64821366395,496.64821366395,0.36181360845495,9.4359238911795e-05,2.170409391754e-07,0.020014810224058,6.4200517852352e-05,-0.8695755077014,-0.54489688481508,7.8691817053641e-08,0.00076127786548973,2.9475308046791e-06,0.00064437583259906,4.8229489086259e-05,0.0045441523952717,3.1203882839393,0.00092909977589379,-0.0005856886944506,0.00069356079205991,9.3577804666797e-05,-0.37183192899214,-0.22981400353285,1.5373682469864e-08,0.00033201411937165,-4.8395558667425e-06,-0.0030138227401571,5.5589353918335e-05,0.00027566865208362,2.2453623821396e-05,-1.1720230383699,-0.65377379526,-1.5847240198069e-07,0.00069806736051096,0.00025999809946212,0.0028195309000989,0.0033250249464171,5.0060184661261e-07,1.6722680234302,0.00046837659652636,-5.9172324739769e-05,0.012102347628771,2.7100061401649,0.00048563786099982,-0.0022619572865495,1.8209562924411e-05,-0.13386599968752,-3.8235524882248e-05,0.31571942749795,3.7927883604312e-05,-0.016046840810348,622.00021700008,622.00021700008,622.18503236592,622.18503236592,622.58936895696,622.22539354436,623.38959538003,622.73925020165,621.10830322678,621.24204972823,622.09634662052,621.48768585963,622.56462194743,623.17830847724,623.08286060287,623.87203245075,623.05705167701,622.0241006509,621.83491176071,622.97532155094,622.51876990378,621.02836627316,621.05456763605,622.56462194743,622.05250058599,621.61226544876,623.14774895481,622.60602943737,623.70165201923,622.93905921038,621.33731701523,621.62106764777,622.22037908359,621.53678818114,623.88221562225,623.55176106974,623.17252827439,624.0596122548,623.24090664707,622.74457622736,622.92861734263,623.49956577114,622.73639143603,623.88221562225,623.16028027486,623.16028027486,621.25625821591,621.25625821591,1564.848168205,0.0032521908512366,775.19710150763,-0.015147033603902,767.06695273733,-0.013061407227244,0
3.2734375e-05,806929641.99451,806189783.45314,809273317.16128,0.062463104089687,0.64760436919854,-0.22576307227148,1469725704.4353,1.8393845077061e-06,9.7464653561832e-06,1.7039134464419e-06,1.0000160930041,497.36338851209,497.36338851209,497.56264579928,497.56264579928,497.94497492031,497.603400898,498.74498364817,498.11685397113,496.47212502728,496.62528002021,497.47577912655,496.86547159295,497.94524264001,498.52764748149,498.46209746926,499.23615557276,498.4279808503,497.38518703948,497.21118024076,498.34124254679,497.89632343148,496.39469399034,496.43487037957,497.94524264001,497.43105303101,496.9923137819,498.49918880722,497.98487061408,499.05102095543,498.31670515166,496.69963011112,497.00525172635,497.60057676377,496.91029463899,499.23193176571,498.90015241089,498.55113855992,499.41683218201,498.6149002611,498.09748573766,498.30850819212,498.87068586412,498.10410497598,499.23193176571,498.53815997102,498.53815997102,496.62789029907,496.62789029907,0.38773502332789,0.00010498913999706,2.4163132885288e-07,0.02052741609759,7.0211572557616e-05,-0.96634903768405,-1.0573542191741,9.9881058988438e-08,0.00084295762766195,-4.1823008298331e-05,0.00067407064751141,5.053626922023e-05,0.0048678318809274,3.6134203473287,0.00096395501122756,-0.00062135072697993,0.0007485440192011,0.00010198192244234,-0.41226412608079,-0.18871336101407,1.6723769827969e-08,0.00037688847007569,-2.1182432587604e-05,-0.0032566344476464,5.6663169285376e-05,0.00028686152694831,2.4842787430171e-05,-1.2730155478061,-1.4954268660092,6.2680874921803e-08,0.00077439729787905,0.00021651332862281,0.0029992620144233,0.003531694234275,6.0410151258001e-07,1.8070452095839,0.00048299545433254,-6.0907010335613e-05,0.012637823322179,2.9659433197076,0.00050082681485967,-0.0024454937202058,2.0739236089983e-05,-0.14064069239093,-3.7235338747426e-05,0.33312727852598,4.1304312100699e-05,-0.016735401225037,621.978146368,621.978146368,622.17740365518,622.17740365518,622.55973277622,622.2181587539,623.35974150408,622.73161182704,621.08688288319,621.24003787612,622.09053698246,621.48022944886,622.56000049592,623.1424053374,623.07685532517,623.85091342866,623.04273870621,621.99994489539,621.82593809666,622.9560004027,622.51108128738,621.00945184625,621.04962823548,622.56000049592,622.04581088692,621.6070716378,623.11394666313,622.59962846999,623.66577881134,622.93146300757,621.31438796702,621.62000958226,622.21533461968,621.52505249489,623.84668962162,623.51491026679,623.16589641582,624.03159003792,623.22965811701,622.71224359357,622.92326604803,623.48544372003,622.71886283189,623.84668962162,623.15291782693,623.15291782693,621.24264815498,621.24264815498,5910.0095541842,0.0032677632120885,778.68581008172,-0.015331969076096,770.51779904537,-0.013241080032843,0
3.27734375e-05,806920337.81873,806169926.05853,809264432.794,0.062463104089687,0.64760436919854,-0.22576307227148,1469565782.3328,1.8421307740473e-06,9.7580998960737e-06,1.7066098535578e-06,1.0000163455489,497.35692547733,497.35692547733,497.56130549156,497.56130549156,497.93808871718,497.60065907348,498.74161925608,498.11463513319,496.46587484506,496.62342846047,497.4746447122,496.86258867511,497.94343365874,498.51912153421,498.45938236516,499.23185185139,498.42321768093,497.37902068436,497.20800303256,498.33896883733,497.8944555493,496.38901874973,496.43229460496,497.94343365874,497.42995340943,496.99037932111,498.49194413203,497.98230601668,499.04636668291,498.31415949457,496.69304193038,497.00377139759,497.59928198651,496.9061724383,499.2250660139,498.89182789199,498.54823304603,499.41143778527,498.61090683561,498.0893183225,498.30608396558,498.86746144723,498.09859078277,499.2250660139,498.53523931172,498.53523931172,496.62351888696,496.62351888696,0.40035717924683,9.7175333855486e-05,2.4979483795553e-07,0.020325450249003,7.7053641529481e-05,-0.99101364426283,-0.60700812787213,9.7138710834603e-08,0.00075116525240051,-4.2504754004775e-05,0.00070136010327694,5.1917123924179e-05,0.0051030742789062,3.592090013656,0.00095917396869086,-0.00065176756123831,0.00075693079385366,0.00010994741589345,-0.42782406709061,-0.18167367510723,1.7224200021949e-08,0.00031443373811763,-2.2257455966018e-05,-0.0034431551495133,5.8334015478775e-05,0.00028021226587351,2.7729238174148e-05,-1.2925645851039,-0.73282840993135,-4.1334152733387e-08,0.000698977415781,0.00022991943301571,0.0031425469114491,0.0036470243927518,6.9798194580035e-07,1.8441414160382,0.00047946172572698,-6.3193598150172e-05,0.012762756884082,3.0128006619864,0.00049043645033084,-0.0025833052391292,2.1169501481167e-05,-0.1395087544499,-3.8747043080635e-05,0.33753783337232,4.3319316413963e-05,-0.018136230214961,621.97218055434,621.97218055434,622.17656056857,622.17656056857,622.5533437942,622.2159141505,623.35687433309,622.72989021021,621.08112992208,621.23868353749,622.08989978921,621.47784375213,622.55868873576,623.13437661122,623.07463744217,623.8471069284,623.03847275794,621.99427576137,621.82325810957,622.95422391434,622.50971062632,621.00427382675,621.04754968197,622.55868873576,622.04520848644,621.60563439813,623.10719920905,622.5975610937,623.66162175993,622.92941457159,621.3082970074,621.61902647461,622.21453706353,621.52142751532,623.84032109092,623.50708296901,623.16348812305,624.02669286228,623.22616191263,622.70457339952,622.9213390426,623.48271652425,622.71384585979,623.84032109092,623.15049438874,623.15049438874,621.23877396398,621.23877396398,24321.347896502,0.0032716565710821,779.57249820965,-0.015286395504792,771.39230514415,-0.01320990083844,0
3.28515625e-05,806901187.80427,806128602.02229,809245586.77416,0.062463104089687,0.64760436919854,-0.22576307227148,1469246127.4083,1.8453194204723e-06,9.7814042835444e-06,1.7140813566443e-06,1.0000168913142,497.34365028109,497.34365028109,497.55856038048,497.55856038048,497.92383095028,497.59462755565,498.73480039822,498.10989744555,496.45296576084,496.61935606772,497.47235386578,496.85664459587,497.93960341784,498.50169665384,498.45350975562,499.22305270763,498.4132985138,497.36617014304,497.20110250491,498.33435666659,497.89051340026,496.37722003022,496.42671059605,497.93960341784,497.42774834142,496.98638942844,498.47702272453,497.97664151347,499.03691146055,498.30868171804,496.67949115711,497.00050672633,497.59662125191,496.89768305241,499.21101544382,498.87480250295,498.5419342171,499.40042488257,498.60249576717,498.07260511165,498.30086505988,498.8608330744,498.08719392154,499.21101544382,498.52891157325,498.52891157325,496.61426516217,496.61426516217,0.4127103830096,0.00010312164662247,2.7649204611282e-07,0.021831455792932,8.7665468871818e-05,-1.1396139089683,-0.47657840611961,1.1255412009689e-07,0.00079954708186562,-0.00026041021791666,0.00070014578652961,5.2660850504673e-05,0.0051645430138967,3.6538400933867,0.0008574669970534,-0.00061908879476745,0.0013761389638132,0.00012153442983863,-0.44737156893519,-0.18747682918011,1.6804099499644e-08,0.00033875065055505,-7.0730189064977e-05,-0.0029204944545187,5.7463621237212e-05,0.00030407985187401,3.2633631531537e-05,-1.6651421412528,-0.70534216677953,1.7037495156711e-07,0.00074325426013384,-0.00024542847650091,0.0031582078659924,0.0037115506663452,8.9252202490571e-07,1.9327434593392,0.00042376751856303,-5.9401588401578e-05,0.025163652545559,3.1088680661619,0.0004036509559908,-0.0024434118664128,3.0789157775865e-05,-0.12737899993538,-3.4527067957754e-05,0.57997025444281,4.5971373728601e-05,-0.017991875314555,621.95977430893,621.95977430893,622.17468440832,622.17468440832,622.53995497812,622.21075158349,623.35092442606,622.72602147339,621.06908978868,621.23548009556,622.08847789362,621.47276862371,622.55572744568,623.11782068168,623.06963378346,623.83917673547,623.02942254164,621.98229417088,621.81722653275,622.95048069443,622.5066374281,620.99334405806,621.04283462389,622.55572744568,622.04387236926,621.60251345628,623.09314675237,622.59276554131,623.65303548839,622.92480574588,621.29561518495,621.61663075417,622.21274527975,621.51380708025,623.82713947166,623.49092653079,623.15805824494,624.01654891042,623.21861979501,622.68872913949,622.91698908772,623.47695710224,622.70331794938,623.82713947166,623.14503560109,623.14503560109,621.23038919001,621.23038919001,5542.9835157067,0.0032794430755204,781.24307663585,-0.015272234389503,773.11171814911,-0.013185427949792,0
3.2890625e-05,806887253.02838,806084330.77044,809189308.37706,0.062463104089687,0.64760436919854,-0.22576307227148,1469086530.388,1.8484425963768e-06,9.792937458333e-06,1.6903692804046e-06,1.0000173249567,497.33528398485,497.33528398485,497.54302361966,497.54302361966,497.90619680148,497.57626954053,498.70370487905,498.09439851184,496.44410954908,496.61088104337,497.45961179682,496.84845667312,497.92978847442,498.48806266759,498.44106063755,499.20592583063,498.40257116726,497.35066266269,497.18540066129,498.31013098863,497.87504038482,496.36752875693,496.41728941438,497.92978847442,497.41353028925,496.9764721138,498.45736299941,497.95527187227,499.00835910593,498.29286207058,496.67111430542,496.99231407994,497.58537466667,496.89020320998,499.18920674966,498.85849500947,498.52739759432,499.38052808184,498.59006153742,498.06129469707,498.29005740969,498.84676048345,498.07769891017,499.18920674966,498.51228954427,498.51228954427,496.60218695711,496.60218695711,0.42010304770054,0.00013585338338811,1.6597582598596e-07,0.021720566419793,8.2872998263644e-05,-1.2060236461784,-0.43879255556988,1.0745941344682e-07,0.0007519854116889,1.1419234703085e-06,0.00067474634945283,5.2582879709927e-05,0.0048550406269348,3.5357288804753,0.0010498140004761,-0.00063842901294741,0.00064801845873355,0.0001199566237163,-0.55566348528217,-0.21345110160238,1.6331257769177e-08,0.00027270481798568,-5.4526266386993e-06,-0.0034289684096391,5.6851838291026e-05,0.00028417103258479,2.9521005262517e-05,-3.6859341122804,-0.57165274809621,9.8090321787881e-08,0.00078385664555491,0.00027890622876492,0.0030310883660618,0.0037674396083955,7.338391061201e-07,1.9207451909419,0.00050147051643413,-6.1017436323223e-05,0.011819669860248,3.1206739326918,0.0006716660626604,-0.002553666293339,1.8095738973871e-05,-0.13441260665112,-3.7370248275641e-05,0.35243269954298,4.9003125325271e-05,-0.024705744976855,621.95782432915,621.95782432915,622.16556396396,622.16556396396,622.52873714578,622.19880988483,623.32624522335,622.71693885614,621.06664989338,621.23342138767,622.08215214112,621.47099701742,622.55232881872,623.11060301189,623.06360098185,623.82846617493,623.02511151156,621.97320300699,621.80794100559,622.93267133293,622.49758072912,620.99006910123,621.03982975868,622.55232881872,622.03607063355,621.5990124581,623.07990334371,622.57781221657,623.63089945023,622.91540241488,621.29365464972,621.61485442424,622.20791501097,621.51274355428,623.81174709396,623.48103535377,623.14993793862,624.00306842614,623.21260188172,622.68383504137,622.91259775399,623.46930082775,622.70023925447,623.81174709396,623.13482988857,623.13482988857,621.22472730141,621.22472730141,21591.699768063,0.0032834760331345,782.28701371186,-0.015851401132723,773.96407128682,-0.013942084560016,0
3.2900390625e-05,806884734.1291,806078764.61544,809186593.03921,0.062463104089687,0.64760436919854,-0.22576307227148,1469046397.6336,1.8490170911598e-06,9.7958460441773e-06,1.6910702065935e-06,1.000017393151,497.33354569617,497.33354569617,497.54263438691,497.54263438691,497.90427545629,497.57539703909,498.7027793254,498.0937252911,496.44239484465,496.61028420708,497.45928846285,496.84766598767,497.92924656449,498.48578237611,498.44023016468,499.20475003318,498.40124810205,497.34891640751,497.18440900725,498.30949243547,497.87447998527,496.36594171576,496.41648887485,497.92924656449,497.41321891924,496.97593086206,498.45536525175,497.95443704982,499.00708852278,498.29208493485,496.6693300549,496.9918308111,497.58499883291,496.88908480276,499.18733848866,498.85625590348,498.52650854986,499.37906363074,498.5889203628,498.05911018124,498.28931879244,498.84586478756,498.07619543693,499.18733848866,498.51139689003,498.51139689003,496.60090314487,496.60090314487,0.42248466430275,0.00013683276610087,1.6730943555514e-07,0.021797619268516,8.3527823668711e-05,-1.1876209118623,-0.4376154091371,1.0906794915859e-07,0.0007572024358451,8.6493553847081e-07,0.00068208912891945,5.2784413406174e-05,0.0049231668375697,3.5575170044077,0.0010520940014292,-0.00064677030325076,0.00065047467697047,0.00012077218746199,-0.54276814441837,-0.21308193326485,1.6466762180371e-08,0.00027682924828027,-5.6612410043604e-06,-0.0034809923423161,5.7302545441412e-05,0.00028540915125312,2.9793231142594e-05,-1.9300709978979,-0.5710123762662,1.1455140523586e-07,0.00078939918625071,0.0002818931467159,0.0030703693536078,0.0037853086989794,7.4237566269659e-07,1.9323868831821,0.00050248216565903,-6.1621075939844e-05,0.011874424454063,3.1397359028071,0.00066893771799547,-0.0025922325391473,1.81540600075e-05,-0.13445133350132,-3.7290033136849e-05,0.35310222384446,4.9293815309739e-05,-0.023879513775118,621.9562319299,621.9562319299,622.16532062064,622.16532062064,622.52696169002,622.19808327282,623.32546555913,622.71641152483,621.06508107839,621.23297044081,622.08197469658,621.4703522214,622.55193279822,623.10846860984,623.06291639841,623.82743626691,623.02393433578,621.97160264124,621.80709524098,622.9321786692,622.497166219,620.98862794949,621.03917510858,622.55193279822,622.03590515297,621.59861709579,623.07805148548,622.57712328355,623.62977475651,622.91477116858,621.29201628863,621.61451704483,622.20768506664,621.51177103649,623.81002472239,623.47894213721,623.14919478359,624.00174986447,623.21160659653,622.68179641497,622.91200502618,623.46855102129,622.69888167066,623.81002472239,623.13408312376,623.13408312376,621.2235893786,621.2235893786,68698.39855079,0.003284449276487,782.50528602425,-0.015864466955849,774.17980144577,-0.013954850434865,0
3.2919921875e-05,806879674.5086,806067645.19338,809181311.03755,0.062463104089687,0.64760436919854,-0.22576307227148,1468966136.3383,1.8502453027039e-06,9.8016629786082e-06,1.6922552723056e-06,1.0000175248411,497.33005111018,497.33005111018,497.54188903162,497.54188903162,497.90045123209,497.57365476037,498.70097359021,498.09240041322,496.43895716058,496.60910123567,497.45867341306,496.84608630818,497.92818243506,498.48121612841,498.43857514534,499.20242536065,498.39859319028,497.34543887161,497.18243895459,498.30825987984,497.87338622541,496.36276626088,496.41489687449,497.92818243506,497.41262989665,496.97486183544,498.45139160118,497.9527917129,499.00458909107,498.2905455894,496.66574768099,496.99087780343,497.58427523148,496.88683954516,499.18362827815,498.85178299357,498.52473156815,499.3761624479,498.58663493262,498.05472733608,498.28785231351,498.84409842057,498.07317460387,499.18362827815,498.50961281636,498.50961281636,496.59834560204,496.59834560204,0.4255219302861,0.00013864356817232,1.7035417104315e-07,0.021776626315396,8.4281846120543e-05,-1.1617462458499,-0.4334277231992,1.1217407416611e-07,0.00076657445278162,5.8662853322178e-07,0.0006792773083955,5.3049592970867e-05,0.004903953276948,3.5855648067273,0.0010570427316251,-0.00064443386332004,0.00065234248262616,0.00012188998569763,-0.52574500861567,-0.21131410215579,1.6701547653069e-08,0.00028346770339802,-5.746463985383e-06,-0.0034724026054852,5.6993744101925e-05,0.00028608968522849,3.0072903353228e-05,-1.5434287475941,-0.5666222355079,1.4614744258942e-07,0.00079940643477654,0.00028052688537669,0.0030595822082335,0.0038094289578445,7.5223015432219e-07,1.9479592581877,0.00050426269546885,-6.1292483902251e-05,0.011898116581737,3.163677966598,0.00067757977192405,-0.002585371059565,1.8246002921858e-05,-0.13310633331273,-3.712960843187e-05,0.35217194477852,4.9818531616181e-05,-0.022786933817776,621.95296770313,621.95296770313,622.16480562457,622.16480562457,622.52336782504,622.19657135332,623.32389018316,622.71531700617,621.06187375353,621.23201782862,622.08159000601,621.46900290113,622.55109902801,623.10413272136,623.06149173829,623.8253419536,623.02150978323,621.96835546456,621.80535554754,622.93117647279,622.49630281837,620.98568285383,621.03781346744,622.55109902801,622.0355464896,621.59777842839,623.07430819413,622.57570830585,623.62750568402,622.91346218235,621.28866427394,621.61379439638,622.20719182443,621.50975613811,623.8065448711,623.47469958652,623.1476481611,623.99907904085,623.20955152557,622.67764392903,622.91076890646,623.46701501352,622.69609119682,623.8065448711,623.13252940931,623.13252940931,621.22126219499,621.22126219499,17029.727694311,0.003286395755532,782.9427334056,-0.015889131838534,774.61235619646,-0.013978062487847,0
3.2958984375e-05,806869478.62997,806045277.46899,809170621.5902,0.062463104089687,0.64760436919854,-0.22576307227148,1468805630.182,1.8527099517718e-06,9.8132966825676e-06,1.6946424947576e-06,1.0000177894024,497.32300711285,497.32300711285,497.54034357689,497.54034357689,497.89273406065,497.57020628842,498.69726499783,498.08973817247,496.43204083321,496.60676884506,497.45738633053,496.84289342534,497.92603798003,498.47198577386,498.43529083462,499.19768385468,498.39326336278,497.3384442139,497.17853164086,498.30571284024,497.87116851474,496.35639040761,496.41174620121,497.92603798003,497.41138972096,496.97268718323,498.44335020575,497.94954706111,498.99948083283,498.28747151526,496.65853098101,496.98899479953,497.5827823564,496.88231251582,499.17608895177,498.84272711971,498.52120858219,499.37024938848,498.58206252967,498.04587914737,498.28493324508,498.84049905847,498.06709614184,499.17608895177,498.50606986616,498.50606986616,496.59323828923,496.59323828923,0.43170514111903,0.00014231716290948,1.7670430622762e-07,0.021760638544888,8.5858035927356e-05,-1.1329196258343,-0.4271216713337,1.1844127689973e-07,0.00078554265487489,6.5739145389231e-08,0.00067389812291226,5.3592485350592e-05,0.004867167320179,3.6425153107724,0.0010670833666233,-0.00063985406053005,0.00065659151968248,0.00012425169356583,-0.50608958477204,-0.20865363339804,1.7198460171177e-08,0.00029465625591712,-5.9013256112399e-06,-0.0034556058998171,5.6398546783457e-05,0.00028744717228168,3.0650936588805e-05,-1.4103538767179,-0.56020743410178,2.0951189725654e-07,0.00081968123299185,0.00027785508013018,0.0030390623157168,0.0038586690837753,7.7229362640436e-07,1.9795410576834,0.00050790932620988,-6.0644623914558e-05,0.0119572255048,3.2123494832829,0.00069484981660274,-0.0025720032729909,1.8452595197228e-05,-0.13091394656223,-3.6819123910263e-05,0.35194937240154,5.0939928763128e-05,-0.021499709904616,621.94636361216,621.94636361216,622.1637000762,622.1637000762,622.51609055996,622.19356278773,623.32062149714,622.71309467178,621.05539733252,621.23012534437,622.08074282984,621.46624992465,622.54939447934,623.09534227317,623.05864733393,623.82104035399,623.01661986209,621.96180071321,621.80188814017,622.92906933955,622.49452501405,620.97974690692,621.03510270052,622.54939447934,622.03474622027,621.59604368254,623.06670670506,622.57290356042,623.62283733214,622.91082801457,621.28188748032,621.61235129884,622.20613885571,621.50566901513,623.79944545108,623.46608361902,623.1445650815,623.99360588779,623.20541902898,622.66923564668,622.90828974438,623.46385555778,622.69045264115,623.79944545108,623.12942636547,623.12942636547,621.21659478854,621.21659478854,6096.252799876,0.0032902886973038,783.81690989322,-0.015937944719529,775.47703458822,-0.014023451235066,0
3.3037109375e-05,806848801.9684,806000206.70702,809149500.79155,0.062463104089687,0.64760436919854,-0.22576307227148,1468484684.0682,1.8576947594495e-06,9.8365640054746e-06,1.6997353045482e-06,1.0000183261332,497.30870967251,497.30870967251,497.53727585175,497.53727585175,497.87719144562,497.56342769692,498.68982739717,498.08446370202,496.41805241526,496.60218371705,497.4548255547,496.83643753498,497.92178007589,498.45327107873,498.42878040567,499.18811314244,498.38250667004,497.32438793452,497.17081420247,498.30063026639,497.86677300087,496.34353836508,496.40551181951,497.92178007589,497.40892311623,496.96831418844,498.42712770171,497.94318185137,498.98919855083,498.28138200099,496.64390258305,496.98530440003,497.57981355516,496.87313525174,499.16085214509,498.82438259932,498.51422662379,499.35829836613,498.57288366546,498.02792772566,498.27914439465,498.83325668696,498.05478653372,499.16085214509,498.49905011327,498.49905011327,496.5830344661,496.5830344661,0.44460244732768,0.00014987051798302,1.8607131348744e-07,0.021813654615969,8.8083544151752e-05,-1.113744672159,-0.42038390565528,1.3096383674156e-07,0.00082443471498222,-9.9230977798707e-07,0.00066390949595672,5.4741048035205e-05,0.004798440599845,3.7602321810961,0.0010879542051206,-0.00063078327417954,0.00066646865388041,0.00012722340698049,-0.49044055980756,-0.20585794039126,1.8026013147852e-08,0.00031380908620721,-6.2497790908187e-06,-0.0034221290525835,5.5286650577845e-05,0.00029016960253076,3.1595554610323e-05,-1.3603556777459,-0.55429405874777,3.3254266292751e-07,0.0008612889231026,0.00027245843249047,0.003001198277297,0.0039620196580687,8.1188261342752e-07,2.0445685452409,0.00051582558045717,-5.9358989340844e-05,0.012114993112598,3.3133647125332,0.00072954437275252,-0.0025455476754416,1.8903758234443e-05,-0.12836925696387,-3.6337126937948e-05,0.35490427186345,5.2327492853768e-05,-0.020380527060035,621.93292458839,621.93292458839,622.16149076763,622.16149076763,622.50140636151,622.18764261281,623.31404231306,622.7086786179,621.04226733114,621.22639863293,622.07904047059,621.46065245087,622.54599499178,623.07748599462,623.05299532155,623.81232805832,623.00672158593,621.9486028504,621.79502911835,622.92484518227,622.49098791676,620.96775328097,621.0297267354,622.54599499178,622.03313803211,621.59252910432,623.05134261759,622.56739676725,623.61341346671,622.90559691687,621.26811749894,621.60951931592,622.20402847104,621.49735016763,623.78506706098,623.44859751521,623.13844153968,623.98251328202,623.19709858134,622.65214264154,622.90335931054,623.45747160285,622.6790014496,623.78506706098,623.12326502915,623.12326502915,621.20724938199,621.20724938199,3113.0370528958,0.0032980745369708,785.56383325155,-0.016019460264047,777.20448400484,-0.014098749054136,0
3.3193359375e-05,806805916.40948,805897921.90799,809092162.17022,0.062463104089687,0.64760436919854,-0.22576307227148,1467843067.307,1.8669852384963e-06,9.8831071708911e-06,1.7107510281108e-06,1.0000194664575,497.2794067736,497.2794067736,497.53032352475,497.53032352475,497.84186063829,497.54028503409,498.67385389007,498.06991359928,496.38750944572,496.58684869237,497.44941451947,496.82290184232,497.91040863,498.41485661944,498.40935165707,499.16842068532,498.35833940425,497.29080495667,497.14620806863,498.28945966148,497.85531737544,496.31381055466,496.38614100842,497.91040863,497.4038946275,496.95890159047,498.39169917509,497.92123943041,498.9674711796,498.26386796733,496.61317277503,496.97285657076,497.57296055652,496.85416003182,499.12919646977,498.78661264813,498.49311504806,499.33398035475,498.5503986722,497.99114703712,498.26231812634,498.81767560409,498.02863316603,499.12919646977,498.47796837326,498.47796837326,496.55568160695,496.55568160695,0.46718102749139,0.0001416204537142,2.168027421912e-07,0.022803238929572,9.6174632644562e-05,-1.3139225954945,-0.42310300821518,1.7672451460535e-07,0.0011166864598898,-2.9710402418767e-06,0.00064388665977867,5.7303364546892e-05,0.0047877007581667,4.037470080847,0.0010733450421155,-0.00061791055972848,0.00068903234271912,0.00013824891473472,-0.57869988878609,-0.20844579507234,2.1337150086988e-08,0.00051583499751081,-6.8762931101651e-06,-0.0033833899239229,5.2788286625139e-05,0.00030959022535024,3.4935445765364e-05,-1.4897710296377,-0.56137369339822,7.9571060802639e-07,0.0010321134088994,0.00026413320448426,0.0029380469874763,0.0041506005402015,9.5129050663804e-07,2.1778111221212,0.0005260808728305,-5.7299626496952e-05,0.012515865071903,3.5087329546427,0.00065209200823808,-0.0025135868657254,1.9147201702436e-05,-0.12755585882332,-3.4089911056054e-05,0.36846841894806,5.7286728268413e-05,-0.020590135950223,621.90608262913,621.90608262913,622.15699938027,622.15699938027,622.46853649382,622.16696088961,623.30052974559,622.6965894548,621.01418530124,621.21352454789,622.07609037499,621.44957769785,622.53708448552,623.04153247496,623.0360275126,623.79509654085,622.98501525978,621.91748081219,621.77288392416,622.916135517,622.48199323097,620.94048641018,621.01281686394,622.53708448552,622.03057048302,621.58557744599,623.01837503061,622.54791528593,623.59414703512,622.89054382285,621.23984863055,621.59953242629,622.19963641205,621.48083588734,623.7558723253,623.41328850365,623.11979090358,623.96065621027,623.17707452773,622.61782289265,622.88899398187,623.44435145961,622.65530902156,623.7558723253,623.10464422879,623.10464422879,621.18235746248,621.18235746248,2243.5581159486,0.0033136869092241,789.02706673222,-0.016185455610342,780.63451583374,-0.014275361490835,0
3.3505859375e-05,806714416.91827,805685755.17298,808980033.87637,0.062463104089687,0.64760436919854,-0.22576307227148,1466561196.8142,1.8847546420031e-06,9.9761863894381e-06,1.7508764256254e-06,1.0000221443305,497.21659570734,497.21659570734,497.51613838881,497.51613838881,497.76757112486,497.47552759387,498.64038505946,498.04047699819,496.32300355213,496.5547789771,497.43816483344,496.79423160067,497.88749302611,498.33251416862,498.36836135776,499.12648913235,498.30776667392,497.22007254903,497.08601047535,498.26631387787,497.83229828426,496.25145540867,496.34466534824,497.88749302611,497.39336634344,496.93922402665,498.31697458432,497.86615892229,498.92158988681,498.22783224027,496.54771925614,496.94760311787,497.55896244289,496.81367998007,499.06179719263,498.70580180574,498.4476553641,499.28196490029,498.50380023073,497.91224985522,498.22763905407,498.78494878172,497.97320927749,499.06179719263,498.43281839079,498.43281839079,496.49713541939,496.49713541939,0.52632456189615,0.00017104473840462,3.0194929768588e-07,0.023280517828785,0.00011191004092033,-2.4417612224991,-0.43307863270171,2.3082245425375e-07,0.0013342795393786,-7.3621088663628e-06,0.00061585796679655,6.2350606426597e-05,0.0046433878786985,4.5459826915791,0.0011466972771633,-0.00058083058491389,0.00075622780696651,0.00016170387677034,-0.50632996982515,-0.21211909067308,2.5916872603945e-08,0.00061011579796215,-8.3125665221851e-06,-0.0032659231321783,4.8852725124527e-05,0.00031752069578226,4.0804415077732e-05,-1.4857506562451,-0.58158338045129,1.4002584910962e-06,0.001238078616323,0.00024391163730191,0.0028480824111795,0.0046245361804663,1.1623928972149e-06,2.4709357185218,0.00055300208069642,-5.1775858470681e-05,0.013671740228567,3.9648832064381,0.00076002599211128,-0.0024124881761247,2.1915302678186e-05,-0.12491318481071,-3.0445829207694e-05,0.39998882434131,6.8595688286126e-05,-0.020730089151782,621.85268846351,621.85268846351,622.15223114498,622.15223114498,622.40366388103,622.11162035004,623.27647781563,622.67656975436,620.9590963083,621.19087173327,622.07425758961,621.43032435685,622.52358578228,622.96860692479,623.00445411394,623.76258188852,622.94385943009,621.8561653052,621.72210323152,622.90240663405,622.46839104043,620.88754816484,620.98075810442,622.52358578228,622.02945909961,621.57531678282,622.9530673405,622.50225167847,623.55768264298,622.86392499645,621.18381201231,621.58369587404,622.19505519906,621.44977273624,623.6978899488,623.34189456191,623.08374812027,623.91805765646,623.13989298691,622.54834261139,622.86373181024,623.4210415379,622.60930203367,623.6978899488,623.06891114696,623.06891114696,621.13322817556,621.13322817556,5255.9131982176,0.0033448292153615,795.87866853365,-0.016579539344618,787.41310917222,-0.014640417528756,0
3.3583984375e-05,806688990.11255,805631789.42026,808957138.1045,0.062463104089687,0.64760436919854,-0.22576307227148,1466242002.0527,1.8901089630567e-06,9.9994547666003e-06,1.7561360811412e-06,1.0000228064747,497.19896911679,497.19896911679,497.51282646272,497.51282646272,497.74904113038,497.46823218645,498.63182537422,498.03467010695,496.30597551358,496.54982486354,497.43538414914,496.78643979634,497.88274931523,498.30957326303,498.36108709324,499.11507513178,498.29480656836,497.20344034254,497.07757465963,498.26064074398,497.82748931082,496.23601292148,496.33772683399,497.88274931523,497.39071138493,496.93411025641,498.29753387555,497.85943395163,498.909496634,498.22109672089,496.52976477169,496.94368578985,497.5557004784,496.80244237322,499.04345791924,498.68342792965,498.43986583723,499.26761668514,498.49298167639,497.89016875407,498.22116707978,498.7764304402,497.95817366549,499.04345791924,498.42501318809,498.42501318809,496.48532173464,496.48532173464,0.5503835454789,0.00018038526981561,3.3827285756378e-07,0.024274947208536,0.00011474988195706,-1.4861439851609,-0.45579967463662,2.4843680244849e-07,0.001405095548839,-8.6115618883967e-06,0.0006659204172675,6.4336612599951e-05,0.0051459135023614,4.7670298983568,0.0011659442128241,-0.00063980537281195,0.00078158142403189,0.00016215760238621,-0.52991985086304,-0.22278444705346,2.9386368249608e-08,0.00064304261485166,-9.4214491734171e-06,-0.0036526796765844,5.1584759794211e-05,0.00032644499582587,4.2814680344134e-05,-1.5605493221427,-0.61272463206562,1.5788026347404e-06,0.0013050258376975,0.00026400377531637,0.0031303595846725,0.0048043711337193,1.2551456897817e-06,2.5897736921353,0.00056168010378039,-5.5607237467948e-05,0.014193763656662,4.1592113922706,0.00074285212347173,-0.002698977777529,2.2703320945269e-05,-0.13130414233296,-2.954744041107e-05,0.41875536980285,6.7150548160234e-05,-0.021522242670215,621.836215351,621.836215351,622.15007269692,622.15007269692,622.38628736458,622.10547842065,623.26907160843,622.67191634115,620.94322174778,621.18707109774,622.07263038334,621.42368603054,622.51999554943,622.94681949723,622.99833332744,623.75232136598,622.93205280256,621.84068657674,621.71482089383,622.89788697818,622.46473554502,620.87325915568,620.97497306819,622.51999554943,622.02795761913,621.57135649062,622.93478010975,622.49668018583,623.5467428682,622.85834295509,621.16701100589,621.58093202405,622.1929467126,621.43968860742,623.68070415344,623.32067416386,623.07711207143,623.90486291934,623.13022791059,622.52741498827,622.85841331399,623.4136766744,622.5954198997,623.68070415344,623.06225942229,623.06225942229,621.12256796884,621.12256796884,12083.748015028,0.0033526145690097,797.58563134214,-0.016674077303014,789.10864260364,-0.014723787265263,0
3.3740234375e-05,806635696.93638,805518616.33376,808909086.30672,0.062463104089687,0.64760436919854,-0.22576307227148,1465604343.5546,1.9000384409403e-06,1.004599022658e-05,1.7667402417557e-06,1.0000241949545,497.16200287301,497.16200287301,497.50587395968,497.50587395968,497.71016611469,497.45292823745,498.61386422009,498.02247747891,496.27026053193,496.53940562777,497.4295460266,496.77010114807,497.87278983243,498.26145507533,498.3458005378,499.09113336116,498.2676240249,497.16854055581,497.05975494764,498.24873317494,497.81739404559,496.20361832765,496.32314028175,497.87278983243,497.38513705285,496.92338511439,498.25675165183,497.84518575797,498.88412559321,498.20694949325,496.4921090024,496.93544818523,497.54885246613,496.77887823757,499.00498858696,498.6364975404,498.4234902547,499.23752037297,498.47028326074,497.84385545263,498.20757226564,498.75856080367,497.92664134778,499.00498858696,498.40860673237,498.40860673237,496.46051444,496.46051444,0.58737629512779,0.00017755118140078,3.7886784401321e-07,0.023602222596152,0.00012573619667399,-1.3972777853405,-0.45375164076587,2.7414671023696e-07,0.0013209705067663,-7.0579290734575e-06,0.00064134983695751,6.8096659390784e-05,0.0049571181316238,5.0855235523909,0.0012039537538373,-0.00060758659955409,0.00082014648089241,0.0001789806181465,-0.55543013352139,-0.22003865407048,3.261498471406e-08,0.00058583412334316,-8.4421187451289e-06,-0.0035213115362692,4.8941892114533e-05,0.00031432799498467,4.6498035649429e-05,-1.6453207736045,-0.61671915760355,1.6909264990293e-06,0.0012458561438718,0.00025202959702282,0.0030323439555078,0.0051327647391215,1.3658173385698e-06,2.7605636950006,0.00057559623997466,-5.1459560975464e-05,0.014873307267218,4.4329605471143,0.00082716504627641,-0.0025947335646274,2.4208622749662e-05,-0.12628715670709,-3.14887140026e-05,0.44103882496649,7.4584782556143e-05,-0.02242882365296,621.80144334866,621.80144334866,622.14531443533,622.14531443533,622.34960659034,622.0923687131,623.25330469574,622.66191795456,620.90970100758,621.17884610342,622.06898650225,621.40954162372,622.51223030808,622.90089555098,622.98524101345,623.73057383681,622.90706450055,621.80798103146,621.69919542329,622.88817365059,622.45683452124,620.8430588033,620.9625807574,622.51223030808,622.0245775285,621.56282559004,622.89619212748,622.48462623362,623.52356606886,622.8463899689,621.13154947805,621.57488866088,622.18829294178,621.41831871322,623.64442906261,623.27593801605,623.06293073035,623.87696084862,623.10972373639,622.48329592828,622.84701274129,623.39800127932,622.56608182343,623.64442906261,623.04804720802,623.04804720802,621.09995491565,621.09995491565,2325.5763542974,0.003368251625923,801.01579684565,-0.016747953749295,792.4920976958,-0.014822267623627,0
3.4052734375e-05,806522324.02035,805278560.15732,808809120.56382,0.062463104089687,0.64760436919854,-0.22576307227148,1464332262.8584,1.9189423499089e-06,1.0139067527011e-05,1.788191733471e-06,1.0000272859671,497.08325261266,497.08325261266,497.49161135854,497.49161135854,497.62783935849,497.42074642663,498.57638009856,497.99695771585,496.19426716498,496.51744575129,497.41761152236,496.73546666861,497.85193779912,498.15916757881,498.3135095552,499.04068540611,498.20983940201,497.09461200677,497.02216264196,498.22410019695,497.79638882294,496.13477419825,496.29230313996,497.85193779912,497.37379775371,496.90083926723,498.17042335433,497.81520094182,498.83084370142,498.17721324607,496.41192322418,496.91816314364,497.53472018898,496.72874947337,498.92365050428,498.53688126586,498.38887784627,499.17400474215,498.42212482851,497.74529363042,498.17890515695,498.72098572378,497.8595263718,498.92365050428,498.37397258376,498.37397258376,496.40796912489,496.40796912489,0.65891610057875,0.00021038975129043,4.7009139535955e-07,0.023798924042198,0.00014160483850494,-1.5062168631637,-0.46576637806725,3.553040251246e-07,0.0015444724785325,-1.2419758570433e-05,0.00061754128931561,7.4376971001149e-05,0.0048038569769466,5.7136974523124,0.001296306931193,-0.000555916679367,0.00091105216594745,0.00020463340250711,-0.61761609848573,-0.22362675238785,3.9758154704946e-08,0.00068750030736646,-9.9318296216946e-06,-0.0033403992162549,4.5757609360392e-05,0.00031543908630337,5.2088788746522e-05,-1.8376762282786,-0.64171235860084,2.502583661949e-06,0.0014636218171658,0.00022450020542442,0.0029514764813296,0.0057174532563917,1.6199660036268e-06,3.1146178318525,0.00061252441895686,-4.4187828500094e-05,0.016445608152291,4.9879088848301,0.00095453360651734,-0.0024441094242534,2.7729615581171e-05,-0.12343156781907,-2.7632153706916e-05,0.49093076338384,8.8434754784943e-05,-0.024661152564805,621.72728538244,621.72728538244,622.13564412831,622.13564412831,622.27187212827,622.06477919641,623.22041286834,622.64099048562,620.83829993475,621.16147852106,622.06164429214,621.37949943838,622.49597056889,622.80320034858,622.95754232497,623.68471817588,622.85387217178,621.73864477654,621.66619541174,622.86813296673,622.44042159271,620.77880696803,620.93633590974,622.49597056889,622.01783052348,621.544872037,622.8144561241,622.45923371159,623.47487647119,622.82124601584,621.05595599395,621.56219591342,622.17875295876,621.37278224315,623.56768327406,623.18091403564,623.03291061605,623.81803751193,623.06615759828,622.3893264002,622.82293792673,623.36501849356,622.50355914157,623.56768327406,623.01800535354,623.01800535354,621.05200189467,621.05200189467,866.14463250476,0.0033995233696435,807.74955592634,-0.017115332381563,799.16864241983,-0.015138762900447,0
3.4677734375e-05,806259311.49886,804700972.79654,808552883.72881,0.062463104089687,0.64760436919854,-0.22576307227148,1461806663.5447,1.9572375071362e-06,1.0325206819602e-05,1.8275948525617e-06,1.0000350159471,496.90103883706,496.90103883706,497.4548316719,497.4548316719,497.43232997265,497.33239586552,498.48496802201,497.93048348519,496.0166177238,496.45687783227,497.38580459787,496.65393534457,497.79585610462,497.92176292813,498.22736993478,498.91954492303,498.07179925612,496.91726487732,496.92256996786,498.16243833498,497.74201075461,495.97161110993,496.21126758745,497.79585610462,497.34403480022,496.84640583224,497.96672299965,497.73176687407,498.70325065236,498.09925046768,496.22594667199,496.86879211999,497.49670593372,496.61209421712,498.73246895582,498.30494033628,498.29674467246,499.02355145188,498.30372434217,497.51700413181,498.10224968488,498.62841401456,497.70209568759,498.73246895582,498.28230182516,498.28230182516,496.27794084035,496.27794084035,0.82116249156186,0.00028501230435407,6.9251391806729e-07,0.024297128993587,0.0001973609637094,-1.9018629956166,-0.51593371068,5.7259871882028e-07,0.0020318735565784,-4.5539685859376e-05,0.0013476830276855,8.8067564204804e-05,0.026498020619217,7.1682809516459,0.0014939028118202,-0.0017749415676166,0.0011024984453207,0.00029133757947229,-0.77069468753495,-0.23841004704743,5.4050008850899e-08,0.00091659002322476,-1.8429836952035e-05,-0.021121280395999,3.5254351595082e-05,0.0003190891227056,7.2602643834441e-05,-2.3785646424462,-0.72134193450441,4.6696763219696e-06,0.0019456260826746,0.00030238161106557,0.013526233326884,0.0070286390041189,2.4018441123128e-06,3.9202851727144,0.00068149853431397,-3.9827181668861e-05,0.020139135501591,6.2589053589223,0.00090670620120427,-0.015777328666856,3.4838397771597e-05,-0.12103070065656,-1.6088974328278e-05,0.63096014633986,0.00013364256646936,-0.028646119259883,621.55768387537,621.55768387537,622.11147671021,622.11147671021,622.08897501096,621.98904090383,623.14161306032,622.58712852351,620.67326276211,621.11352287058,622.04244963618,621.31058038288,622.45250114294,622.57840796644,622.88401497309,623.57618996134,622.72844429443,621.57390991564,621.57921500617,622.8190833733,622.39865579292,620.62825614824,620.86791262576,622.45250114294,622.00067983853,621.50305087055,622.62336803796,622.38841191238,623.35989569067,622.75589550599,620.8825917103,621.52543715831,622.15335097203,621.26873925543,623.38911399413,622.96158537459,622.95338971077,623.68019649019,622.96036938048,622.17364917012,622.75889472319,623.28505905288,622.3587407259,623.38911399413,622.93894686347,622.93894686347,620.93458587866,620.93458587866,688.63618076441,0.0034618011832351,820.88598264544,-0.017940518232404,812.13799767054,-0.015926819933541,0
3.5302734375e-05,805923540.55165,803952315.97328,808207136.2445,0.062463104089687,0.64760436919854,-0.22576307227148,1459360145.2763,1.9975658211007e-06,1.0511369266169e-05,1.8727600275756e-06,1.0000449421556,496.66649027279,496.66649027279,497.4055921039,497.4055921039,497.17706857897,497.1946037552,498.36393960976,497.83562215156,495.78766659032,496.36968291255,497.34347223528,496.54874083211,497.71532888556,497.61465161576,498.10215282935,498.76185104175,497.8887291593,496.68376918684,496.7756203434,498.08004501694,497.66609991308,495.75961224612,496.09712615911,497.71532888556,497.30516449585,496.77552916195,497.70211906348,497.59857263529,498.53618280959,497.98568652143,495.98691680395,496.7971627921,497.44254480205,496.46209334663,498.48543652608,498.00527397094,498.16024325001,498.82931831245,498.14179141951,497.22189617061,497.99300058078,498.50385078173,497.49697619864,498.48543652608,498.14531486328,498.14531486328,496.10212904838,496.10212904838,1.0236657941617,0.00037711212169026,1.0123090148955e-06,0.025308780775257,0.00026521631104539,-2.5604154607514,-0.63915557824655,8.5991670904792e-07,0.0026055961736785,-0.00011588163134719,-1.5673236247798e-05,0.00010521967775136,0.096929845153408,9.102305623846,0.0017301658028206,0.00032267007555338,0.0013879674975337,0.00039032552786265,-0.99098344589521,-0.26125304564445,7.5477061053082e-08,0.001154448041021,-7.3978794469465e-05,-0.075489491898095,-8.7844157480172e-06,0.00032271222221384,0.0001038229951554,-3.4849646992999,-0.9016100706174,7.6257653691464e-06,0.0025267991809865,-0.00021852919824921,0.033678048433336,0.0086688041093961,4.7324763930914e-06,4.9329436417351,0.00076038467486084,4.3397082513563e-05,0.025171802897317,7.8923666250503,0.0020168342322965,-0.052680889472172,4.7030489181713e-05,-0.12929607416743,1.0831833480643e-06,0.81991673061998,0.00018355588707213,-0.036542851447898,621.3465374198,621.3465374198,622.08563925091,622.08563925091,621.85711572598,621.87465090221,623.04398675677,622.51566929857,620.46771373733,621.04973005956,622.02351938229,621.22878797912,622.39537603257,622.29469876277,622.78219997636,623.44189818876,622.56877630631,621.36381633385,621.45566749041,622.76009216395,622.34614706009,620.43965939313,620.77717330612,622.39537603257,621.98521164286,621.45557630896,622.38216621049,622.2786197823,623.2162299566,622.66573366844,620.66696395096,621.47720993911,622.12259194906,621.14214049364,623.16548367309,622.68532111795,622.84029039702,623.50936545946,622.82183856652,621.90194331762,622.67304772779,623.18389792874,622.17702334565,623.16548367309,622.82536201029,622.82536201029,620.78217619539,620.78217619539,2920.6581630197,0.0035240750743139,833.44019715172,-0.018780339834102,824.56728951935,-0.016707839904621,0
3.5380859375e-05,805873648.34212,803846465.52498,808164912.33448,0.062463104089687,0.64760436919854,-0.22576307227148,1459081664.0938,2.0029278355695e-06,1.0534640022918e-05,1.8817606634895e-06,1.0000462522423,496.63169904052,496.63169904052,497.40011527322,497.40011527322,497.1410877546,497.17958359302,498.34857658974,497.82443131007,495.75405958048,496.35956466556,497.33909732578,496.53367721208,497.70635847295,497.56979444587,498.08735312662,498.7405216719,497.86296744528,496.65120790422,496.75836848816,498.07028698288,497.65721796099,495.72908649808,496.083010439,497.70635847295,497.30112046794,496.76600300392,497.66464282887,497.58445650835,498.51383995069,497.97231415512,495.95149856802,496.78929436613,497.4370150939,496.44003792192,498.45050446957,497.96184711447,498.14424932734,498.80232207982,498.12013724792,497.17849363787,497.98005689709,498.48798985014,497.46720928609,498.45050446957,498.12934883561,498.12934883561,496.07858086313,496.07858086313,1.0834941312955,0.000399636535251,1.1137435841679e-06,0.027415260885134,0.00027459437698753,-2.6599836204815,-0.66872875870753,9.034476232864e-07,0.0027662196247026,-0.00011682224016236,-1.6451155681601e-05,0.00010918055475156,0.032459285206582,9.6633996625994,0.0017618455571855,0.00033818854315292,0.0014562030421337,0.00039007427126265,-1.0489864065419,-0.28310502986925,8.4569647818874e-08,0.0012236985891587,-7.5648344017798e-05,-0.024377921085861,-9.2480333575598e-06,0.0003387898114965,0.00011136681676793,-3.5264878645237,-0.94289197282309,8.0803572353446e-06,0.002685334405047,-0.00022736332191705,0.010940176348346,0.0090622221869315,5.2230061720952e-06,5.2410255914524,0.00077263049685046,4.535237625817e-05,0.026473116451635,8.3971286084087,0.0020528366074427,-0.016846753844571,4.9300809726517e-05,-0.14257186486482,3.8093987498177e-06,0.85990750551808,0.00017769999777233,-0.038545487575127,621.3141780109,621.3141780109,622.0825942436,622.0825942436,621.82356672497,621.8620625634,623.03105556012,622.50691028044,620.43653855086,621.04204363593,622.02157629616,621.21615618245,622.38883744332,622.25227341624,622.76983209699,623.42300064228,622.54544641565,621.3336868746,621.44084745854,622.75276595326,622.33969693136,620.41156546846,620.76548940938,622.38883744332,621.98359943832,621.4484819743,622.34712179925,622.26693547872,623.19631892107,622.6547931255,620.6339775384,621.47177333651,622.11949406428,621.12251689229,623.13298343995,622.64432608485,622.82672829772,623.48480105019,622.8026162183,621.86097260825,622.66253586746,623.17046882051,622.14968825647,623.13298343995,622.81182780598,622.81182780598,620.7610598335,620.7610598335,8684.0931331847,0.0035318589826124,834.98715168411,-0.018883244796969,826.10275351772,-0.016802167912588,0
3.5537109375e-05,805767525.46904,803621736.33513,808075671.59893,0.062463104089687,0.64760436919854,-0.22576307227148,1458536630.3266,2.0147570627853e-06,1.0581200652024e-05,1.8941917345654e-06,1.0000490361175,496.55765894387,496.55765894387,497.38847217421,497.38847217421,497.0646150877,497.14819847297,498.31588145816,497.80085525492,495.6825865765,496.33831548499,497.32973523817,496.50165008253,497.6873916236,497.47431432859,498.05622917804,498.69507519341,497.80831623144,496.58208546891,496.72213191006,498.04952079944,497.63846171594,495.66423918565,496.05328215038,497.6873916236,497.2924629583,496.74575868272,497.5849209835,497.55502654122,498.46627839897,497.94419121898,495.87612894436,496.77277854287,497.42524784181,496.39312451655,498.37611469097,497.86939119394,498.11066090902,498.74480017266,498.07432813931,497.08611724015,497.95278546871,498.45424581902,497.40394919769,498.37611469097,498.09583649022,498.09583649022,496.02874868694,496.02874868694,1.1404325722381,0.00042150791240571,1.2095407876566e-06,0.026568294030158,0.00028370481068153,-3.0193933885194,-0.65271796429724,9.6632720170594e-07,0.0028937777284346,-0.00011736614977336,-1.7950153482321e-05,0.00011422282979473,0.014002983894283,10.129042915037,0.0018084814936586,0.00037594332685478,0.001709065003731,0.00040881878243669,-1.2231681193913,-0.2787967373279,9.0646975481754e-08,0.0012694298460961,-7.591383769188e-05,-0.0097665886591879,-1.0095553594475e-05,0.00032513122653224,0.00011391133851894,-3.8521753098476,-0.92946093813498,8.7649581987423e-06,0.0028169657914164,-0.00024531189115202,0.0048562445015616,0.009547514637199,4.9724601978748e-06,5.5030135827733,0.0007899845494449,5.0411262535529e-05,0.031025499656868,8.8180321324772,0.002105089323356,-0.0067062814384888,5.7418290942093e-05,-0.13853894286543,8.3581579666051e-06,0.98434662652109,0.00019076689842481,-0.044717729749557,621.24533852323,621.24533852323,622.07615175356,622.07615175356,621.75229466706,621.83587805233,623.00356103752,622.48853483428,620.37026615586,621.02599506435,622.01741481753,621.18932966189,622.37507120296,622.16199390795,622.7439087574,623.38275477277,622.4959958108,621.26976504827,621.40981148942,622.7372003788,622.3261412953,620.35191876501,620.74096172974,622.37507120296,621.98014253766,621.43343826208,622.27260056286,622.24270612058,623.15395797833,622.63187079834,620.56380852372,621.46045812223,622.11292742117,621.08080409591,623.06379427033,622.55707077329,622.79834048838,623.43247975202,622.76200771867,621.77379681951,622.64046504807,623.14192539837,622.09162877705,623.06379427033,622.78351606958,622.78351606958,620.7164282663,620.7164282663,2908.8114859291,0.0035474249703156,837.99091972266,-0.019084351774198,829.14137231101,-0.01693225611455,0
3.5693359375e-05,805650126.00337,803331100.13349,807910326.45518,0.062463104089687,0.64760436919854,-0.22576307227148,1458015325.0475,2.0257465972145e-06,1.0627769519167e-05,1.9068808439217e-06,1.0000522379887,496.47768436012,496.47768436012,497.37127203585,497.37127203585,496.96752581697,497.0578919799,498.2770415805,497.75217043896,495.59885097552,496.28493656885,497.31892946238,496.46422645369,497.65321315304,497.37224864284,497.9870639586,498.64560828917,497.7352059665,496.48630550636,496.6335614525,498.0228363585,497.60288073275,495.5804214914,495.98778918947,497.65321315304,497.28302849916,496.72014241617,497.49046632222,497.46661572974,498.41235051126,497.88240503367,495.79296173763,496.7298063232,497.40891814706,496.3406868765,498.29506122651,497.77023437047,498.03290728972,498.68394425651,498.00144404998,496.98735085785,497.89563319731,498.41388094946,497.32885130319,498.29506122651,498.01731544306,498.01731544306,495.94397548907,495.94397548907,1.1998443637031,0.00045447509010738,1.3189723504137e-06,0.028080088188772,0.00033701351887946,-4.573438188549,-0.67412806829611,1.0611940522444e-06,0.0031206795472588,-0.00012226675013761,-1.989621384449e-05,0.00011860307450361,0.0094365340468372,10.773204169466,0.0016974349272564,0.00041279942248433,0.001776080997239,0.00045694884407374,-1.3828671999131,-0.29115758982767,9.7906575476702e-08,0.0013794846013335,-7.9556955656587e-05,-0.0060114799284437,-1.1090305614739e-05,0.00034326575296873,0.00016772444117947,-5.9385592659065,-0.95751347734424,9.7611636699869e-06,0.0030393668282532,-0.0002636112145353,0.003348664111727,0.0099918247876654,1.1681234432993e-05,5.8349379018221,0.00072879416662925,5.5580395656164e-05,0.031578449162146,9.332965128397,0.0020152400083814,-0.0040782148999822,6.2041510153302e-05,-0.13870022300736,1.7618946328163e-05,1.0389623428649,0.00020779375449104,-0.043015336332895,621.17698072085,621.17698072085,622.07056839657,622.07056839657,621.6668221777,621.75718834063,622.97633794123,622.45146679969,620.29814733625,620.98423292958,622.01822582311,621.16352281441,622.35250951377,622.07154500357,622.68636031933,623.3449046499,622.43450232723,621.18560186709,621.33285781323,622.72213271923,622.30217709348,620.27971785213,620.6870855502,622.35250951377,621.98232485989,621.4194387769,622.18976268294,622.16591209047,623.11164687199,622.5817013944,620.49225809836,621.42910268393,622.10821450779,621.03998323723,622.99435758724,622.4695307312,622.73220365044,623.38324061723,622.70074041071,621.68664721858,622.59492955804,623.11317731019,622.02814766392,622.99435758724,622.71661180379,622.71661180379,620.6432718498,620.6432718498,5655.2202703588,0.0035630907989545,840.9404684086,-0.019242372547182,832.06719657691,-0.01714402242884,0
3.5732421875e-05,805620512.32437,803265174.02661,807881093.61621,0.062463104089687,0.64760436919854,-0.22576307227148,1457891867.8038,2.0283332880208e-06,1.063941878167e-05,1.9100431908135e-06,1.0000530516789,496.45705503421,496.45705503421,497.36779346995,497.36779346995,496.94519020665,497.03980030972,498.26780505533,497.74375959718,495.57849991989,496.27643116073,497.31636056833,496.45514317955,497.64695414828,497.34572618367,497.97505896748,498.63298310213,497.71889451326,496.46542795422,496.61732447459,498.01686648841,497.5965602344,495.5613642117,495.97655161645,497.64695414828,497.28070563028,496.71429627723,497.46771900279,497.44885878523,498.39903370029,497.87178052711,495.77185740608,496.72319542905,497.40546221609,496.3275135727,498.27436138309,497.74455114579,498.0191920245,498.66807593053,497.98673390082,496.9616794613,497.88570807479,498.40426017548,497.31072602214,498.27436138309,498.00337023224,498.00337023224,495.92742947461,495.92742947461,1.2199963335366,0.0004753193626332,1.3495739060776e-06,0.030636035462966,0.00036455813660106,-4.7841053334202,-0.68589597385082,1.1003471043476e-06,0.0032462559453058,-0.00012555624223501,-2.2241436767379e-05,0.00012197875379386,0.0078031124277078,11.047074969155,0.0025277926992445,0.00042145313285753,0.0018312958953848,0.00047544182859804,-1.2907552307271,-0.29467271991212,1.0021282387452e-07,0.0014292554868223,-8.1931655034151e-05,-0.0053650789791467,-1.1408856704894e-05,0.00043909576063766,0.00020850802494466,-5.8226845217083,-0.98112124480627,1.0088187462586e-05,0.0031700697100712,-0.00027032402642913,0.0030655264916565,0.0100920076419,1.7826177141782e-05,5.9787176737773,0.00090164678181623,5.6693152569974e-05,0.032621767712836,9.545811491067,0.0036489704152879,-0.0036587350738116,6.3878953311857e-05,-0.14309144304269,1.8704829403488e-05,1.0318591808858,0.00021290709528177,-0.043561088738994,621.16064165401,621.16064165401,622.07138008975,622.07138008975,621.64877682645,621.74338692953,622.97139167514,622.44734621699,620.28208653969,620.98001778054,622.01994718814,621.15872979935,622.35054076808,622.04931280348,622.67864558728,623.33656972194,622.42248113307,621.16901457402,621.32091109439,622.72045310821,622.30014685421,620.2649508315,620.68013823626,622.35054076808,621.98429225009,621.41788289704,622.1713056226,622.15244540503,623.10262032009,622.57536714691,620.47544402588,621.42678204886,622.10904883589,621.03110019251,622.97794800289,622.44813776559,622.7227786443,623.37166255033,622.69032052062,621.66526608111,622.58929469459,623.10784679529,622.01431264195,622.97794800289,622.70695685205,622.70695685205,620.63101609442,620.63101609442,28050.038362576,0.0035669825841932,841.6526953728,-0.019229259733551,832.78687584766,-0.017173576973617,0
3.5810546875e-05,805559687.24877,803128095.56897,807818158.02087,0.062463104089687,0.64760436919854,-0.22576307227148,1457648517.2629,2.0345733352001e-06,1.0662680551084e-05,1.9170787659211e-06,1.000054704728,496.41481024089,496.41481024089,497.36058460863,497.36058460863,496.89857858685,497.00804002135,498.24871793819,497.72628871378,495.536258274,496.2579972545,497.31103693368,496.43654725036,497.63360165213,497.29131946493,497.95038069769,498.60710898111,497.68539716737,496.42157504552,496.58551763047,498.00449260875,497.58335175523,495.52142948843,495.95249033972,497.63360165213,497.27594682416,496.70230393335,497.42054210066,497.41882084394,498.37158007341,497.85006605265,495.72836538784,496.70874134712,497.39818260559,496.3005538223,498.23180117606,497.69182938171,497.99190366611,498.63559285291,497.95654821782,496.90905368963,497.86482524724,498.38441086126,497.27358413316,498.23180117606,497.97613321258,497.97613321258,495.89236493959,495.89236493959,1.2735140637543,0.00049146948233584,1.4188039879975e-06,0.026301585894476,0.00029564561061684,-4.8856633223106,-0.74174632827488,2.8979687352524e-06,0.0033393127772759,-0.00018326317560862,-2.189644581179e-05,0.00012340026380222,0.0064066334736587,11.256065227669,0.0019257115640562,0.00046368361655313,0.002020746451276,0.00043977864403851,-1.8122742875909,-0.30534873502194,2.1264294718454e-07,0.0010908274423438,-0.00013963118413394,-0.0035548341095195,-1.2280565766168e-05,0.0003044804208081,0.0001161622291729,-4.9453330351033,-1.0847378678763,1.9357092681015e-05,0.00326661554358,-0.00031386993127622,0.0022611479910744,0.010660225234708,5.3214827849023e-06,6.1235132584761,0.00087054092315106,6.2388899836839e-05,0.03365273524682,9.8399535742494,0.0022114092334542,-0.0023548607585537,7.3092707058713e-05,-0.21836288387902,1.2868731611099e-05,1.0277373916851,0.00021083843239959,-0.091434986264011,621.12452916973,621.12452916973,622.07030353747,622.07030353747,621.60829751569,621.7177589502,622.95843686703,622.43600764262,620.24597720285,620.96771618335,622.02075586253,621.1462661792,622.34332058097,622.00103839378,622.66009962654,623.31682790996,622.39511609622,621.13129397437,621.29523655931,622.71421153759,622.29307068407,620.23114841727,620.66220926857,622.34332058097,621.985665753,621.4120228622,622.1302610295,622.12853977279,623.08129900225,622.55978498149,620.43808431668,621.41846027596,622.10790153443,621.01027275115,622.9415201049,622.40154831055,622.70162259496,623.34531178175,622.66626714666,621.61877261847,622.57454417608,623.0941297901,621.983303062,622.9415201049,622.68585214142,622.68585214142,620.60208386844,620.60208386844,25432.002828051,0.0035746630138603,843.0509892318,-0.019333765784278,834.24761166085,-0.017184452620831,0
3.5849609375e-05,805526833.17295,803043251.45333,807765576.09566,0.062463104089687,0.64760436919854,-0.22576307227148,1457531783.3445,2.037572835157e-06,1.0674325315569e-05,1.9277741943974e-06,1.0000556414541,496.39267592665,496.39267592665,497.35591493153,497.35591493153,496.86848696744,496.97568739346,498.23745318157,497.71226237919,495.51083661965,496.23866022983,497.30777725576,496.42653811963,497.62273523965,497.26248776365,497.92865619845,498.59333064763,497.66558043077,496.39078398766,496.553345015,497.9968128206,497.57330440446,495.49482042016,495.92881774013,497.62273523965,497.27330411616,496.69554029855,497.3921791853,497.38884354282,498.35595711164,497.83194659251,495.70409226789,496.69351906875,497.39305159715,496.28632460125,498.20851635863,497.66364135616,497.96776283727,498.61860576036,497.93632883075,496.88133760343,497.84675055773,498.37293135458,497.25332227882,498.20851635863,497.95243709375,497.95243709375,495.86314671752,495.86314671752,1.3093575033779,0.00050116235643533,1.4692379957352e-06,0.02796848827678,0.00029760799592407,-7.656952384533,-0.83584655988731,2.8375161179537e-06,0.00339941099862,-0.0035060589392387,-2.2809776392249e-05,0.00012643181354614,0.0062188505305235,11.608867255779,0.0019299698630215,0.00047494725967335,0.0021029499789013,0.00043390102044427,-3.1245881103695,-0.34588028713137,2.1175968100597e-07,0.0013005755908307,-0.014483811717607,-0.0033869964979689,-1.2814806336341e-05,0.00031217868201013,0.000117944559346,-5.5956496905321,-1.1832759556328,1.8641717910678e-05,0.0033253905203182,-0.00053035522915745,0.0022095840332737,0.010947846695705,5.5240924505628e-06,6.3280029234357,0.00089160313168057,6.3914507847766e-05,0.034588305237292,10.135308373093,0.0022020088317089,-0.0022257936468051,7.8049799821735e-05,-0.2170150208177,2.1312681784568e-06,1.056695243069,-0.0032240124227051,-0.08230105719405,621.10668740832,621.10668740832,622.06992641321,622.06992641321,621.58249844912,621.68969887514,622.95146466324,622.42627386087,620.22484810133,620.9526717115,622.02178873743,621.1405496013,622.33674672132,621.97649924533,622.64266768012,623.30734212931,622.37959191245,621.10479546934,621.26735649668,622.71082430228,622.28731588614,620.20883190183,620.6428292218,622.33674672132,621.98731559783,621.40955178022,622.10619066697,622.1028550245,623.06996859332,622.54595807418,620.41810374956,621.40753055042,622.10706307883,621.00033608293,622.92252784031,622.37765283783,622.68177431895,623.33261724204,622.65034031243,621.5953490851,622.56076203941,623.08694283626,621.9673337605,622.92252784031,622.66644857542,622.66644857542,620.5771581992,620.5771581992,15685.482147193,0.0035785541127649,843.69430444331,-0.019303247894322,834.92780504625,-0.017180128688835,0
3.5869140625e-05,805509828.48013,802997205.62347,807735209.29309,0.062463104089687,0.64760436919854,-0.22576307227148,1457474849.7786,2.0386435948761e-06,1.0680143715051e-05,1.9292499561749e-06,1.0000561931005,496.3812594651,496.3812594651,497.35326601733,497.35326601733,496.8518935512,496.94643023541,498.23133413336,497.70399387001,495.49722848026,496.22636474552,497.30595679986,496.42129170031,497.61638263819,497.2475521787,497.91534407869,498.58609729203,497.65488496654,496.37326594547,496.52872429628,497.99254888332,497.56746188071,495.48008811677,495.91366366971,497.61638263819,497.27184282447,496.6919114127,497.37689540605,497.36678135216,498.34760745153,497.82109456586,495.69138465741,496.68403209,497.39013288641,496.27894740439,498.19629003693,497.64898596872,497.95276708669,498.60976275587,497.9249790682,496.86701687422,497.83587252685,498.36674794372,497.24268120541,498.19629003693,497.93780920023,497.93780920023,495.84526164513,495.84526164513,1.3155564069466,0.00050454556155187,1.5538544967895e-06,0.028254613981411,0.00031553485661321,-17.572217927978,-0.82864593261185,2.7320888453205e-06,0.0034211074569757,-0.0014036213614746,-2.496194927524e-05,0.00012593201835786,0.006081808568609,11.673232992593,0.0019179780645498,0.00049082858300512,0.0021760201890008,0.00045502259487794,-2.2370155839107,-0.34584247043963,1.7112241531783e-07,0.0013399035142328,-0.014891046010276,-0.0032762506258676,-1.3885028862769e-05,0.00031396904429957,0.00012294981164644,-5.1306827480601,-1.1700024498065,1.8415567474879e-05,0.0033470501904706,-0.00032795007271788,0.0021606764841796,0.010964689909255,5.6104124680973e-06,6.3593432850383,0.00088423952750324,6.6273505389154e-05,0.03542990519914,10.193191821505,0.0021952017713449,-0.0021222451900676,8.1892504720214e-05,-0.21379347914416,3.9073327106891e-07,1.0802020455728,-0.0069194369325319,-0.076704948491625,621.10062368999,621.10062368999,622.07263024222,622.07263024222,621.5712577761,621.6657944603,622.95069835825,622.4233580949,620.21659270516,620.94572897042,622.02532102475,621.1406559252,622.33574686308,621.9669164036,622.63470830359,623.30546151692,622.37424919143,621.09263017036,621.24808852118,622.71191310821,622.2868261056,620.19945234166,620.6330278946,622.33574686308,621.99120704937,621.41127563759,622.09625963094,622.08614557705,623.06697167643,622.54045879075,620.4107488823,621.40339631489,622.1094971113,620.99831162928,622.91565426182,622.36835019361,622.67213131158,623.32912698076,622.6443432931,621.58638109911,622.55523675174,623.08611216861,621.9620454303,622.91565426182,622.65717342512,622.65717342512,620.56462587002,620.56462587002,77769.07642642,0.0035804998966301,844.0090880507,-0.019316849606955,835.25261648371,-0.017158748589652,0
3.58740234375e-05,805506797.87271,802995287.12832,807753700.20011,0.062463104089687,0.64760436919854,-0.22576307227148,1457461153.2889,2.04056508448e-06,1.0681663357766e-05,1.9329685272605e-06,1.000056253319,496.37868608578,496.37868608578,497.36243250364,497.36243250364,496.8538414984,496.94534139716,498.25065422693,497.70789488744,495.49477775166,496.22529354855,497.31419007656,496.42284325623,497.61899886804,497.24661938136,497.91390425703,498.59322557105,497.65314633505,496.37346304289,496.52748765221,498.00756755439,497.57355749836,495.47790404815,495.91191949109,497.61899886804,497.28133182442,496.69594214954,497.38092015089,497.36584350148,498.36323059116,497.82290053796,495.68876540218,496.68404978022,497.39647024989,496.27847298701,498.20370387427,497.65033924466,497.95091149469,498.61790519054,497.92360570364,496.86471118052,497.835476419,498.37234216454,497.24057263474,498.20370387427,497.93686444372,497.93686444372,495.84360910734,495.84360910734,1.364308039838,0.00047907748557922,1.6346114681191e-06,0.10847612557803,0.00034914376371265,-9.565058350904,-1.2342564176022,2.7099699401299e-06,0.0032830312199115,-0.0012695655104705,-5.2886372440986e-05,0.00020651960114564,0.006231558709812,12.208989310033,0.0020694338502165,0.00048969852987502,0.0022597902685805,0.0004838173849092,-2.446747342044,-0.65828150515804,1.6483283972275e-07,0.00081767550200473,-0.013104179455335,-0.0031742468391239,-2.2347365632056e-05,0.0025975031088942,0.00015091221697081,-9.2214911402787,-1.6430594249898,1.7857594021696e-05,0.0032299938080448,-0.00037375668321466,0.0030581345409066,0.011313542397853,9.3419242842889e-06,6.5809282530396,0.0010198253596582,6.5891483495883e-05,0.036168993227697,10.634534067846,0.0022604628953561,-0.0024736624028993,8.6145189829551e-05,-0.42038380231398,-2.48431250112e-05,1.0822557703947,-0.0064510642658141,-0.084500011024914,621.09532320388,621.09532320388,622.07906962175,622.07906962175,621.57047861651,621.66197851527,622.96729134503,622.42453200555,620.21141486976,620.94193066665,622.03082719466,621.13948037434,622.33563598615,621.96325649947,622.63054137513,623.30986268916,622.36978345315,621.09010016099,621.24412477032,622.7242046725,622.29019461647,620.19454116625,620.6285566092,622.33563598615,621.99796894253,621.41257926764,622.097557269,622.08248061959,623.07986770926,622.53953765607,620.40540252029,621.40068689832,622.113107368,620.99511010511,622.92034099237,622.36697636277,622.6675486128,623.33454230865,622.64024282175,621.58134829863,622.55211353711,623.08897928265,621.95720975285,622.92034099237,622.65350156183,622.65350156183,620.56024622545,620.56024622545,183671.09982756,0.0035808103907685,843.9266530301,-0.018957820056352,835.32150332131,-0.016579214946062,0
3.58837890625e-05,805498115.3576,802973198.2184,807740065.09766,0.062463104089687,0.64760436919854,-0.22576307227148,1458095015.1081,2.0414172533095e-06,1.0684573084959e-05,1.9340426910697e-06,1.0000565251252,496.37277282701,496.37277282701,497.36101303981,497.36101303981,496.84583196298,496.9344889817,498.24739211165,497.70421393483,495.48811986486,496.22015169478,497.31313361661,496.42013004843,497.61615979604,497.23882811355,497.90817493507,498.5893313143,497.64797355562,496.36528223269,496.51740699037,498.00527821033,497.57085687865,495.47096358289,495.90547973918,497.61615979604,497.28040223656,496.69405175958,497.37329558017,497.35661038242,498.35880763808,497.81816252769,495.68234856566,496.68010363662,497.39499274967,496.2746629671,498.19727795207,497.64267573604,497.94446037524,498.61311086302,497.91838109903,496.85725989416,497.83077600127,498.36914946104,497.23521297602,498.19727795207,497.93055601805,497.93055601805,495.83569455777,495.83569455777,1.3574906130577,0.00048074253992524,1.6641584434276e-06,0.09883327475275,0.00035037203300519,-14.273934202307,-1.1542094662353,2.6996733153213e-06,0.0032888302584297,-0.0013586711840694,-5.5220744786647e-05,0.00019998793148303,0.0061625527327855,12.137879168047,0.0020316597351304,0.00049050187037559,0.0023273929091623,0.00047987696069544,-2.0242502278967,-0.60722032051787,1.6009156896598e-07,0.00078731905066027,-0.014847005237406,-0.0031344236578782,-2.3236266687705e-05,0.0023939796768799,0.00015161277709842,-5.6607277471808,-1.543287661475,1.784800113279e-05,0.0032391476936659,-0.00037484863878283,0.0030226281959531,0.011263751564587,9.4081525976979e-06,6.5532662574151,0.00099918655749562,6.59735859896e-05,0.036650316446294,10.572430693755,0.0022286547951912,-0.002441098609348,9.0470411050195e-05,-0.38010182057138,-2.4237661356436e-05,1.083213722023,-0.0079523424347303,-0.073173921733499,621.09139349167,621.09139349167,622.07963370447,622.07963370447,621.56445262764,621.65310964636,622.96601277631,622.42283459949,620.20674052952,620.93877235945,622.03175428127,621.13875071309,622.3347804607,621.95744877821,622.62679559973,623.30795197896,622.36659422028,621.08390289735,621.23602765503,622.72389887499,622.28947754331,620.18958424755,620.62410040384,622.3347804607,621.99902290122,621.41267242424,622.09191624483,622.07523104708,623.07742830274,622.53678319235,620.40096923032,621.39872430128,622.11361341433,620.99328363176,622.91589861673,622.3612964007,622.6630810399,623.33173152768,622.63700176369,621.57588055882,622.54939666593,623.0877701257,621.95383364068,622.91589861673,622.64917668271,622.64917668271,620.55431522243,620.55431522243,122943.891891,0.0035817833188974,844.09384014824,-0.018975227125773,835.48625929729,-0.016596714692673,0
3.5888671875e-05,805493940.16823,802964175.66154,807736034.03618,0.062463104089687,0.64760436919854,-0.22576307227148,1458381586.2043,2.0446875658798e-06,1.0686036990169e-05,1.9339587729228e-06,1.0000566470132,496.36986604635,496.36986604635,497.36045177961,497.36045177961,496.8427058217,496.93265425545,498.24596663906,497.70317627862,495.48527533678,496.21918962596,497.31267382971,496.41884354479,497.61532929112,497.23503723769,497.90683506305,498.58745495221,497.64580043535,496.36243659443,496.51560314016,498.00432624365,497.57001206752,495.46834890278,495.90416245602,497.61532929112,497.2799650736,496.693201777,497.37004692672,497.35511056825,498.35680292696,497.81693974366,495.67937237114,496.67934911608,497.39444338514,496.27281132258,498.19424678422,497.63897822936,497.94300716996,498.61075343409,497.91652706177,496.85361262067,497.82960410934,498.36773840025,497.23271996679,498.19424678422,497.92910354979,497.92910354979,495.83358393077,495.83358393077,1.3577005733476,0.00048303172249317,2.1040535803211e-06,0.097827849458169,0.00035295680598397,-7.8798769446042,-1.2976569021071,2.731238081484e-06,0.0032831076149039,-0.0012988714953763,-7.8416879303167e-05,0.00019868116244072,0.0062355003223586,12.144228396093,0.0019910641280994,0.00049054680444764,0.002430696823558,0.0004762943805084,-1.5942632075458,-0.62204668626016,1.86968530973e-07,0.0006647897825665,-0.014433051512892,-0.0030844654135081,-3.3769494028594e-05,0.0023594685284373,0.00015347611911022,-5.4731292557864,-2.0114775001336,1.7938360548569e-05,0.0032544783729419,-0.00036973524763872,0.0030498493246139,0.011255474332707,9.5039252824665e-06,6.508997152166,0.0009798937423927,6.5950481143666e-05,0.038051326727431,10.581944536151,0.0021718531516077,-0.0024246935246073,9.3462108335725e-05,-0.9026474451158,-2.2203706552404e-05,1.1013189173616,-0.0079369072829294,-0.074393455467218,621.08897447259,621.08897447259,622.07956020585,622.07956020585,621.56181424794,621.65176268169,622.9650750653,622.42228470486,620.20438376302,620.9382980522,622.03178225595,621.13795197103,622.33443771736,621.95414566393,622.62594348929,623.30656337845,622.36490886159,621.08154502067,621.2347115664,622.72343466989,622.28912049376,620.18745732903,620.62327088226,622.33443771736,621.99907349984,621.41231020324,622.08915535297,622.07421899449,623.0759113532,622.5360481699,620.39848079738,621.39845754232,622.11355181138,620.99191974882,622.91335521046,622.35808665561,622.6621155962,623.32986186033,622.63563548801,621.57272104692,622.54871253558,623.08684682649,621.95182839303,622.91335521046,622.64821197604,622.64821197604,620.55269235702,620.55269235702,257076.69069973,0.0035822699684201,844.13990977272,-0.018906393984487,835.560757167,-0.016500960384513,0
3.58984375e-05,805485492.99847,802946072.16663,807727645.10223,0.062463104089687,0.64760436919854,-0.22576307227148,1459171348.2394,2.045463601364e-06,1.0688946880539e-05,1.9348074126747e-06,1.0000568740639,496.36400669603,496.36400669603,497.3592237718,497.3592237718,496.83634715606,496.92991888623,498.24289553486,497.70111252101,495.47956200982,496.21742477894,497.31163339489,496.41624893999,497.61364301186,497.22729762937,497.9042873718,498.58350179278,497.64146616636,496.35672643412,496.51253123574,498.00223965071,497.56828261793,495.4631310958,495.90172404199,497.61364301186,497.27896179479,496.69145998731,497.36337148215,497.35259205314,498.35254812849,497.81456308661,495.67337662169,496.67793864521,497.39324709912,496.26909142355,498.18793580425,497.63138291891,497.94027596547,498.60580004847,497.91286998914,496.8462054318,497.82733427915,498.36477111524,497.22771706594,498.18793580425,497.92636128321,497.92636128321,495.8295019101,495.8295019101,1.3541425793702,0.00048524221535695,2.1365044517595e-06,0.091396753428077,0.00035468782061522,-5.4863433126336,-1.1977150669694,2.7376688393169e-06,0.0032936699430932,-0.0012451829246114,-8.0612376417952e-05,0.00019375649973574,0.0061738666733552,12.107359855117,0.0019650159901554,0.00049302926861178,0.0024314409528424,0.00047818065917901,-1.4990716558107,-0.58099208849702,1.8447891238608e-07,0.00066555648229919,-0.014014685918288,-0.0030360177448169,-3.462196528424e-05,0.0022138987545785,0.00015431597146427,-5.0018416553687,-1.8074153072135,1.8029149060418e-05,0.0032674114750999,-0.00036824213543353,0.0030201023882703,0.01122679109334,9.5788075335871e-06,6.5067227809044,0.00096460701651915,6.6290370652096e-05,0.03793573752079,10.549819301668,0.002152243491108,-0.0023867247808413,9.4134855200229e-05,-0.73557809029045,-2.1014537125528e-05,1.0961007183171,-0.007931419997392,-0.073697469964488,621.08369367641,621.08369367641,622.07891075218,622.07891075218,621.55603413644,621.64960586661,622.96258251524,622.42079950138,620.19924899019,620.93711175932,622.03132037526,621.13593592037,622.33332999224,621.94698460974,622.62397435218,623.30318877316,622.36115314673,621.07641341449,621.23221821611,622.72192663108,622.2879695983,620.18281807618,620.62141102236,622.33332999224,621.99864877517,621.41114696768,622.08305846253,622.07227903351,623.07223510886,622.53425006698,620.39306360206,621.39762562558,622.1129340795,620.98877840392,622.90762278462,622.35106989928,622.65996294585,623.32548702884,622.63255696951,621.56589241218,622.54702125952,623.08445809561,621.94740404632,622.90762278462,622.64604826359,622.64604826359,620.54918889048,620.54918889048,80227.734385076,0.0035832429002956,844.31800977332,-0.018923765210527,835.73657292184,-0.016518288423213,0
3.591796875e-05,805468132.7251,802908701.6743,807707599.89336,0.062463104089687,0.64760436919854,-0.22576307227148,1460533733.5177,2.0491196894728e-06,1.0694772038509e-05,1.9365326932015e-06,1.0000573375529,496.35208892279,496.35208892279,497.3560198053,497.3560198053,496.82251398859,496.92443815898,498.23516337736,497.69662934567,495.46782993878,496.21390123792,497.30874656764,496.41093212194,497.609807727,497.21088183032,497.899107974,498.57427577688,497.63272465201,496.34452714675,496.50625464018,497.99675291886,497.56431103401,495.45238351417,495.89684574046,497.609807727,497.27611530309,496.68769081019,497.34859805067,497.34752934853,498.34227325107,497.80960063995,495.66110681296,496.67503021051,497.3901406454,496.26158659392,498.17359442264,497.61492116394,497.93479850784,498.59432204544,497.90550981952,496.83077609563,497.8225960675,498.35782922547,497.21759881167,498.17359442264,497.9208450207,497.9208450207,495.82107262983,495.82107262983,1.4210194385439,0.0013745216112018,2.1736568315857e-06,0.11175820335134,0.00041809413847355,-4.489544200354,-1.3270609070813,-9.7496599105655e-07,0.0091971846086089,-0.001147164885019,-8.8045321753761e-05,0.0001980071769957,0.0045307186219019,12.808519957024,0.0047504439957035,0.0004956686106199,0.0024037724047732,0.00053441173181508,-1.4581980782441,-0.68646373864158,-4.3070949071783e-07,0.0034695596960075,-0.013091415301548,-0.0030526179201028,-3.5994751232437e-05,0.0023974019373673,0.00018891634230427,-4.6948279109884,-2.069516310462,8.9587161561271e-06,0.0091159617328096,-0.00036336638180588,0.0028531243769824,0.011492843227513,1.128889344259e-05,6.8268537272614,0.0020032069633421,6.6756613609625e-05,0.037554801641094,11.212777424663,0.0060376201333564,-0.0023873780277011,0.00010160437927503,-0.91325327303383,-6.2687619614734e-05,1.0916873308086,-0.0076847050815669,-0.072373880451404,621.07298830362,621.07298830362,622.07691918613,622.07691918613,621.54341336942,621.64533753981,622.95606275819,622.4175287265,620.18872931961,620.93480061875,622.02964594847,621.13183150277,622.33070710783,621.93178121115,622.62000735483,623.29517515771,622.35362403284,621.06542652758,621.227154021,622.71765229969,622.28521041484,620.173282895,620.61774512129,622.33070710783,621.99701468392,621.40859019102,622.0694974315,622.06842872936,623.0631726319,622.53050002078,620.38200619379,621.39592959134,622.11104002623,620.98248597475,622.89449380347,622.33582054477,622.65569788867,623.31522142627,622.62640920035,621.55167547646,622.54349544833,623.0787286063,621.9384981925,622.89449380347,622.64174440153,622.64174440153,620.54197201066,620.54197201066,26227.290296841,0.0035851903052788,844.60280782591,-0.018719507665704,836.06815776658,-0.016366082931843,0
3.595703125e-05,805418601.78832,802807636.61202,807658583.90318,0.062463104089687,0.64760436919854,-0.22576307227148,1462663280.5814,2.0518587779505e-06,1.0706416994422e-05,1.9397993143284e-06,1.0000584119756,496.31330938637,496.31330938637,497.34735076094,497.34735076094,496.78121255904,496.91290917294,498.21079714136,497.68597998547,495.43162029931,496.2062691561,497.3004686538,496.39552233569,497.60005046526,497.14932936999,497.88704548569,498.54603471608,497.60775272622,496.30980265572,496.49204191788,497.98051086102,497.55450621503,495.42099469602,495.88551922299,497.60005046526,497.26790445198,496.67723754063,497.30236411573,497.33712596462,498.30638421144,497.79810559747,495.62158987627,496.6688100746,497.38153990739,496.2389285673,498.12514105788,497.55838830448,497.92223331269,498.55748747019,497.88595277518,496.77464118357,497.81129868476,498.33763260035,497.18691513098,498.12514105788,497.90829193448,497.90829193448,495.79913575496,495.79913575496,1.3651987756659,0.00049111369532938,2.2858596705969e-06,0.096169231700075,0.00043676565789325,-3.986077730088,-1.1297268482991,-1.6873209870075e-06,0.003721151338503,-0.001025600086537,-9.812333558384e-05,0.00018467238798774,0.0052538310374981,19.752060904066,0.0026049565178908,0.00050449590864021,0.0023965518057929,0.00056158356960605,-1.4282185600063,-0.59744894242391,-6.1318284916586e-07,0.00097316055075528,-0.011791016796178,-0.0029028736482055,-3.8227076312423e-05,0.0020837416842032,0.00019736964870302,-4.5043856776786,-5.2741336873706,8.644987481211e-06,0.0035415242429408,-0.00036206699936096,0.00274356317569,0.011128778475723,1.23211984124e-05,6.5256695355674,0.0012739377290389,6.8118876574284e-05,0.037560828710448,10.768286759825,0.0029746502676544,-0.0022694788973264,9.4051551341168e-05,-0.62392988094148,-4.3494768618921e-05,1.098558359371,-0.0071640160886633,-0.069801301605555,621.04213983866,621.04213983866,622.07618121323,622.07618121323,621.51004301133,621.64173962523,622.93962759365,622.41481043776,620.1604507516,620.93509960839,622.02929910609,621.12435278798,622.32888091756,621.87815982228,622.61587593798,623.27486516837,622.33658317851,621.03863310801,621.22087237017,622.70934131331,622.28333666732,620.14982514831,620.61434967528,622.32888091756,621.99673490427,621.40606799292,622.03119456802,622.06595641691,623.03521466373,622.52693604976,620.35042032856,621.39764052689,622.11037035968,620.96775901959,622.85397151017,622.28721875677,622.65106376498,623.28631792248,622.61478322747,621.50347163586,622.54012913705,623.06646305264,621.91574558327,622.85397151017,622.63712238677,622.63712238677,620.52796620725,620.52796620725,31783.02108017,0.0035890819961914,845.2644073415,-0.018895444825951,836.72149444457,-0.016514609910529,0
3.59619140625e-05,805414417.75231,802798712.61195,807654679.79886,0.062463104089687,0.64760436919854,-0.22576307227148,1462850179.0308,2.0522487740364e-06,1.0707871914268e-05,1.940214174987e-06,1.0000585281851,496.31039505153,496.31039505153,497.34679619682,497.34679619682,496.77812279497,496.91163220864,498.20937563995,497.6849888968,495.428792814,496.20540921709,497.300009634,496.39423778451,497.59925055458,497.14551777004,497.88580022364,498.54415022175,497.60559708907,496.30702016878,496.49057217851,497.97956385654,497.5536895998,495.41842053105,495.88432706572,497.59925055458,497.2674662144,496.67639231393,497.29913127164,497.33593089075,498.30437367104,497.79695187291,495.61861593418,496.66812919071,497.38099785687,496.23707522674,498.12211204633,497.55468500148,497.92089554205,498.55511848369,497.88413923158,496.77100905995,497.81019563458,498.33622308293,497.18442440824,498.12211204633,497.90694989881,497.90694989881,495.79714017822,495.79714017822,1.3725518735213,0.00049586989868019,2.2973743829071e-06,0.10185214764569,0.00043982943436466,-3.9863693183551,-1.1784263845211,-1.7114866975682e-06,0.0037660384579958,-0.0010102498587648,-9.8675148318376e-05,0.00018524261012742,0.0052265410112902,14.235209798051,0.0025823038769118,0.00050605132842242,0.0024059084375641,0.00056491527378883,-1.4430460233405,-0.63438793829391,-6.2460068767321e-07,0.00098737901134875,-0.0116473593991,-0.0028643296989921,-3.8487849668933e-05,0.0021346186672474,0.00019912210255659,-4.5230301110549,-2.7031656231519,8.6963187173124e-06,0.0035832768219946,-0.00036239799823714,0.0027246323395435,0.011155094385803,1.2404759678253e-05,6.5717388501338,0.0012634533690054,6.8319508860622e-05,0.03774572905118,10.799793863949,0.0029465006918798,-0.0022398701517036,9.4369603263521e-05,-0.61583938905906,-4.2742051964103e-05,1.1053974132226,-0.0070946030984636,-0.070727678403409,621.03955782214,621.03955782214,622.07595896743,622.07595896743,621.50728556558,621.64079497925,622.93853841055,622.41415166741,620.1579555846,620.93457198769,622.02917240461,621.12340055512,622.32841332519,621.87468054064,622.61496299425,623.27331299235,622.33475985968,621.03618293938,621.21973494911,622.70872662715,622.28285237041,620.14758330166,620.61348983633,622.32841332519,621.996628985,621.40555508454,622.02829404225,622.06509366135,623.03353644164,622.52611464351,620.34777870478,621.39729196131,622.11016062747,620.96623799734,622.85127481693,622.28384777208,622.65005831266,623.2842812543,622.61330200219,621.50017183056,622.53935840519,623.06538585353,621.91358717885,622.85127481693,622.63611266942,622.63611266942,620.52630294883,620.52630294883,132619.02222756,0.0035895684674743,845.35314749496,-0.018907893589951,836.80859502629,-0.016525797729149,0
3.59716796875e-05,805405978.02503,802780699.56546,807646737.64893,0.062463104089687,0.64760436919854,-0.22576307227148,1463204398.3689,2.0530083495302e-06,1.0710781486732e-05,1.9409979187674e-06,1.0000587498442,496.30451223545,496.30451223545,497.34565603468,497.34565603468,496.77187201449,496.90905402166,498.20647087895,497.68297884722,495.42308527107,496.20367426028,497.29906299111,496.39164151019,497.5976275838,497.13782444335,497.88328838555,498.54032466896,497.60124939361,496.30139604674,496.48760471367,497.97762198813,497.55202696197,495.41322489508,495.8819226764,497.5976275838,497.2665595305,496.67467697608,497.29258436139,497.33351834843,498.30028939357,497.7946181946,495.61261179217,496.66675316371,497.37988721052,496.23333488835,498.11595581917,497.5471824662,497.91819821288,498.55030922211,497.88048168939,496.76362877299,497.80796813321,498.33336132257,497.17939978435,498.11595581917,497.90424222068,497.90424222068,495.79311205344,495.79311205344,1.3654413233941,0.00049752807387728,2.3196091656578e-06,0.096156441179923,0.0004419380989342,-3.9141348537181,-1.1323032935199,-1.7076511579294e-06,0.0037781288635963,-0.00098801066923651,-9.9703370092787e-05,0.00018205527667066,0.0052131783380272,12.950906089325,0.0025427144069221,0.00050839397251553,0.0024070990226535,0.00056805856418827,-1.435746464153,-0.60382572554988,-6.3729753646744e-07,0.00099717991187721,-0.01140343297479,-0.0028221364392311,-3.8987873636367e-05,0.0020295388815107,0.00020016345167165,-4.4886892113495,-1.9978185289831,8.9501328080118e-06,0.0035952177076907,-0.00036257866583819,0.0027058987081742,0.0111199993561,1.2464299912829e-05,6.5664277632769,0.0012453522760134,6.8643486120184e-05,0.037749215001441,10.713809463336,0.0028949053844602,-0.0022073248286057,9.462231526228e-05,-0.54326041687016,-4.1256214715143e-05,1.1058360194305,-0.006992811757796,-0.070033220021475,621.03420956623,621.03420956623,622.07535336545,622.07535336545,621.50156934526,621.63875135244,622.93616820973,622.41267617799,620.15278260185,620.93337159106,622.02876032188,621.12133884097,622.32732491458,621.86752177413,622.61298571632,623.27002199973,622.33094672439,621.03109337751,621.21730204445,622.7073193189,622.28172429275,620.14292222586,620.61162000718,622.32732491458,621.99625686128,621.40437430686,622.02228169217,622.0632156792,623.02998672435,622.52431552538,620.34230912295,621.39645049449,622.10958454129,620.96303221913,622.84565314995,622.27687979698,622.64789554365,623.28000655289,622.61017902016,621.49332610377,622.53766546399,623.06305865335,621.90909711513,622.84565314995,622.63393955146,622.63393955146,620.52280938422,620.52280938422,34820.481757733,0.0035905414020664,845.5328296883,-0.018926969296274,836.98572399136,-0.016543569154445,0
3.59912109375e-05,805389150.36086,802744801.25898,807631065.68942,0.062463104089687,0.64760436919854,-0.22576307227148,1463859625.14,2.0545274601653e-06,1.0716643097274e-05,1.9444113091877e-06,1.0000591859567,496.29278481108,496.29278481108,497.34342955786,497.34342955786,496.75944265634,496.90391774162,498.20074719614,497.67899285036,495.41170954812,496.20021230723,497.29722153587,496.38647685398,497.59441182481,497.12251606035,497.87827648058,498.53274702208,497.5925774086,496.29020381832,496.48169161287,497.97381477416,497.54874440418,495.40286945164,495.87712433669,497.59441182481,497.26480174459,496.6712802534,497.27957552463,497.32871019789,498.2922175993,497.78997630918,495.6006444686,496.66401255608,497.3777111783,496.22588139046,498.10373250288,497.53225781457,497.91281350156,498.54077588678,497.87318489887,496.74891209056,497.80352968494,498.3276958318,497.16937993176,498.10373250288,497.89884074132,497.89884074132,495.7850837069,495.7850837069,1.3592602023743,0.00049911282316578,2.3494721770807e-06,0.087813824309804,0.00044853242380313,-3.895855852735,-1.0893727616473,-1.8230437078969e-06,0.0037940704302291,-0.00098115406436063,-9.7254458669505e-05,0.00017697082961606,0.01112935199735,12.505241924662,0.0024248569137827,0.0007119163429775,0.0025097121312864,0.00057871315584846,-1.4486583750463,-0.56552647581283,-6.6773628146616e-07,0.0010324467990874,-0.01097090675661,-0.0039830982101631,-3.9809395750167e-05,0.0018655872021315,0.00020308828455302,-4.5740540965408,-1.7191780752275,1.0257768247965e-05,0.0036091743850989,-0.00064224127761639,0.0024019749246052,0.011086376279358,1.2666287135467e-05,6.5649420347782,0.0011825868970765,8.4867668135834e-05,0.039105558224086,10.654018013818,0.0026294273942724,0.00025539492232866,0.00010055021573948,-0.49108818983158,-1.2019812580559e-05,1.1539924493808,-0.0067903437631326,-0.068376708262744,621.02347156011,621.02347156011,622.0741163069,622.0741163069,621.49012940537,621.63460449065,622.93143394517,622.4096795994,620.14239629716,620.93089905626,622.02790828491,621.11716360302,622.32509857384,621.85320280938,622.60896322962,623.26343377112,622.32326415764,621.02089056736,621.21237836191,622.70450152319,622.27943115322,620.13355620068,620.60781108573,622.32509857384,621.99548849362,621.40196700243,622.01026227367,622.05939694692,623.02290434833,622.52066305822,620.33133121764,621.39469930511,622.10839792734,620.9565681395,622.83441925192,622.26294456361,622.64350025059,623.27146263581,622.60387164791,621.47959883959,622.53421643398,623.05838258083,621.9000666808,622.83441925192,622.62952749036,622.62952749036,620.51577045594,620.51577045594,13333.565781788,0.0035924870296392,845.81972784147,-0.018936054322993,837.33886225178,-0.016501941450693,0
3.60302734375e-05,805354516.3694,802669999.56998,807595796.59304,0.062463104089687,0.64760436919854,-0.22576307227148,1465008388.7252,2.0577549802274e-06,1.0728280977459e-05,1.947278863858e-06,1.0000600507275,496.26857797409,496.26857797409,497.33840684851,497.33840684851,496.73313066319,496.89254399306,498.18811979754,497.67022871483,495.38812416158,496.19265491152,497.29303109231,496.37579757163,497.58733577752,497.09052406011,497.86735828185,498.51649410233,497.57448058242,496.26652884832,496.46878525266,497.96525389872,497.54147882776,495.3812836828,495.86679935687,497.58733577752,497.26077867657,496.66412674669,497.25198853617,497.31800448688,498.2746947186,497.77981200643,495.57590531575,496.65794516495,497.37282451089,496.21054698997,498.07770905432,497.50089263283,497.90108501825,498.52039981591,497.85777195995,496.71828946542,497.7938467653,498.3154710704,497.14861632796,498.07770905432,497.88705793347,497.88705793347,495.76804599946,495.76804599946,1.3604788055515,0.00050362379939177,2.429704946046e-06,0.076280274503332,0.00045592294157261,-3.8021759132726,-1.0182999673239,-1.739791856028e-06,0.0038149243129625,-0.00091781972794859,-0.00010069144429369,0.00017009667735321,0.010379684458192,12.381730876273,0.0023448681986451,0.00073382974061004,0.0025107178892339,0.00059017785301344,-1.43912183435,-0.50767550985354,-6.9907407566667e-07,0.0010521225439646,-0.01020764100077,-0.0035605712092546,-4.1575725628281e-05,0.0016318354369175,0.00020674817112625,-4.5468029738129,-1.5896794108513,1.136051426957e-05,0.0036345292424486,-0.0006564529361235,0.0022238397865668,0.011084313914196,1.2982238485759e-05,6.5902419953297,0.0011457728977863,8.7451693430938e-05,0.038900198680232,10.701178762252,0.0025180583953984,0.00041538636018613,0.00010183803421293,-0.51489741030953,-6.7172297670559e-06,1.1583234869711,-0.0064161220987398,-0.066510406180739,621.00143002818,621.00143002818,622.0712589026,622.0712589026,621.46598271727,621.62539604715,622.92097185163,622.40308076891,620.12097621566,620.92550696561,622.02588314639,621.10864962571,622.3201878316,621.8233761142,622.60021033593,623.24934615641,622.30733263651,620.9993809024,621.20163730674,622.69810595281,622.27433088184,620.11413573689,620.59965141096,622.3201878316,621.99363073065,621.39697880077,621.98484059026,622.05085654096,623.00754677269,622.51266406052,620.30875736983,621.39079721903,622.10567656498,620.94339904406,622.81056110841,622.23374468692,622.63393707233,623.25325186999,622.59062401404,621.4511415195,622.52669881939,623.04832312449,621.88146838205,622.81056110841,622.61990998756,622.61990998756,620.50089805355,620.50089805355,8904.9807883874,0.0035963787387853,846.54310900086,-0.019001306713976,838.05368630679,-0.016563481809518,0
3.6030292510986e-05,805354654.63711,802670261.32813,807595820.768,0.062463104089687,0.64760436919854,-0.22576307227148,1465008838.3744,2.0556778925508e-06,1.0728339696454e-05,1.9484662957738e-06,1.0000600508835,496.26869773185,496.26869773185,497.33841028882,497.33841028882,496.73322072096,496.89254186411,498.18814408242,497.6702362864,495.38823040615,496.19265738999,497.29303403591,496.37584586045,497.58734238979,497.09066809848,497.86736901399,498.51654463202,497.57455064353,496.26660485035,496.46879378776,497.96526290677,497.54148470382,495.38136950311,495.86681261628,497.58734238979,497.26078123807,496.66415243363,497.25208631084,497.31799997578,498.27474113371,497.77982119909,495.57602482881,496.65794324799,497.37282843302,496.21062183256,498.07780220696,497.50102521563,497.90109646395,498.52046873473,497.85781820827,496.7184340048,497.79385625956,498.3155031155,497.14870906125,498.07780220696,497.8870691243,497.8870691243,495.76808921744,495.76808921744,1.5258064215138,0.00051270407286219,1.7991842435889e-06,0.10733018577036,0.0057903399178893,-3.7965671304691,-1.0971172975687,-2.9351607468043e-06,0.0040762404838506,-0.00089218179522605,4.1747045922288e-06,0.00022512906395627,66.97516952966,14.930230712058,0.0048460415807041,0.0014951269432084,0.0033360067257396,0.0042490185552671,-1.4458386616414,-0.58333863134702,-9.3948544766964e-07,0.0011883870423959,-0.010136569183103,1.8371149582267,-4.161586664097e-05,0.0026109445557916,0.0039341978146969,-4.5219940925746,-1.7639639768474,5.5936496355553e-06,0.0038246454646968,-0.00041847852309805,25.461449975865,0.012735143341705,0.00030184984258119,7.2336160434515,0.0018619411091858,3.7220051553495e-05,0.044683490696019,12.162560554604,0.0066645534964791,45.427402191776,0.00015146310281736,-0.5828113974255,-4.1890936061654e-05,1.1746243597397,-0.0061356959704544,-0.067921502998697,621.00153889749,621.00153889749,622.07125145446,622.07125145446,621.46606188661,621.62538302975,622.92098524806,622.40307745205,620.12107157179,620.92549855564,622.02587520156,621.10868702609,622.32018355543,621.82350926412,622.60021017963,623.24938579766,622.30739180917,620.99944601599,621.2016349534,622.69810407241,622.27432586946,620.11421066875,620.59965378193,622.32018355543,621.99362240371,621.39699359927,621.98492747648,622.05084114142,623.00758229936,622.51266236473,620.30886599445,621.39078441364,622.10566959866,620.9434629982,622.8106433726,622.23386638127,622.63393762959,623.25330990038,622.59065937392,621.45127517045,622.5266974252,623.04834428114,621.88155022689,622.8106433726,622.61991028994,622.61991028994,620.50093038308,620.50093038308,11321.278774614,0.0035965201919232,846.41837096563,-0.018652024320966,838.02972547817,-0.01635119961372,0
3.6030311584473e-05,805353576.00749,802662525.69152,807572517.16658,0.062463104089687,0.64760436919854,-0.22576307227148,1465009282.0245,2.0586141479124e-06,1.072823436061e-05,1.9440406733429e-06,1.0000601257816,496.26843639221,496.26843639221,497.32877961322,497.32877961322,496.72794307686,496.891039974,498.1675751329,497.66501817267,495.38770307324,496.19209768053,497.28447742074,496.37305176011,497.58370160294,497.08796231636,497.8668376385,498.50774108006,497.57397114307,496.26315867937,496.46735059721,497.94944294454,497.53442923673,495.38062980873,495.86648715133,497.58370160294,497.25102150975,496.65932686531,497.24479372968,497.31653735901,498.25730908188,497.77634074599,495.57565867166,496.65665427534,497.3659896005,496.20928899213,498.06755967791,497.4961518801,497.90078065996,498.51021994726,497.85702104525,496.71721468503,497.79259370894,498.30858517424,497.14830463777,498.06755967791,497.88587515605,497.88587515605,495.76694193824,495.76694193824,1.4935849949494,0.00051380551600554,1.8423328516843e-06,0.084915490126937,0.0040079369138499,-4.0592239149254,-1.1051493743569,-2.1125958527866e-06,0.0039189585230818,-0.00084654115306367,-8.2127913746416e-05,0.00019898086343708,0.0047999451391171,13.406347652878,0.0025101052058922,0.00046794134973101,0.002449987897066,0.0031664945080715,-1.6050296014257,-0.55172440755017,-7.9490380490063e-07,0.0011739401707057,-0.0096357856629189,-0.47766990458223,-3.0814233013935e-05,0.0017744004921591,0.0024638910839586,-4.985801801806,-1.6691108999656,8.6274381723459e-06,0.0037164859305437,-0.00035968057795095,0.0013960689052644,0.012514823439784,0.0001626686207365,6.8697812805241,0.001266547987316,6.3060035138406e-05,0.0439323321623,11.530155579143,0.0028018623758192,-0.19395346193356,8.4932009924578e-05,-0.5951773430536,-5.5606108432635e-05,1.3490283514069,-0.0058660441984773,-0.07116168276214,621.00448809354,621.00448809354,622.06483131456,622.06483131456,621.46399477819,621.62709167534,622.90362683423,622.40106987401,620.12375477457,620.92814938186,622.02052912207,621.10910346145,622.31975330428,621.82401401769,622.60288933984,623.2437927814,622.3100228444,620.9992103807,621.20340229855,622.68549464587,622.27048093806,620.11668151006,620.60253885266,622.31975330428,621.98707321108,621.39537856664,621.98084543101,622.05258906034,622.99336078322,622.51239244732,620.31171037299,621.39270597667,622.10204130183,620.94534069346,622.80361137925,622.23220358144,622.63683236129,623.2462716486,622.59307274658,621.45326638636,622.52864541028,623.04463687558,621.8843563391,622.80361137925,622.62192685738,622.62192685738,620.50299363958,620.50299363958,17954594.914237,0.0035962374154335,846.70076778272,-0.01891324655725,838.03131219613,-0.016616448506206,0
3.6030349731445e-05,805354611.93939,802670229.5606,807595906.58874,0.062463104089687,0.64760436919854,-0.22576307227148,1465009880.4973,2.0586775589733e-06,1.0728240008297e-05,1.943713904715e-06,1.0000600528761,496.26866359966,496.26866359966,497.33841798851,497.33841798851,496.73321872675,496.89256007675,498.18815597703,497.67024457721,495.38821160878,496.19267644959,497.2930480707,496.37583116429,497.58735372927,497.09063720809,497.86738269731,498.51655030858,497.5745320327,496.26660709708,496.46881220452,497.96527620233,497.54149253608,495.38136149245,495.86682913226,497.58735372927,497.26079129058,496.66414682906,497.25208098122,497.3180173602,498.27474827689,497.77982991314,495.57599723387,496.65796375274,497.37283765082,496.21059843724,498.07779502885,497.50100166864,497.90110799512,498.52046670407,497.85781015687,496.71839881595,497.79387252269,498.31550570902,497.14868172726,498.07779502885,497.88707850455,497.88707850455,495.76809923299,495.76809923299,1.4930927326739,0.00051380724067636,1.7819202292345e-06,0.08483475197871,0.004005560379117,-4.0573317327435,-1.0792986214067,-2.1116559399967e-06,0.0039235187731392,-0.00084787018687752,-7.8468868145806e-05,0.00019877331389819,0.0043831685756101,13.403742095468,0.0025091032774608,0.00046562672605274,0.0024308204750105,0.0031646628730448,-1.6037182294755,-0.55200759233419,-7.9523252551135e-07,0.0012003073629107,-0.0096427771945121,-0.41783440069026,-2.9235875616444e-05,0.0017726613467211,0.0024623891972443,-4.9664913223365,-1.670800620124,8.6287210731382e-06,0.0037169591241313,-0.00035958006439389,0.0012731730925597,0.012507416734306,0.00016262035010243,6.8698439938571,0.0012668908873661,6.2682551819823e-05,0.043729175577728,11.527861877228,0.0028001267898716,-0.16980580340135,8.4155306272614e-05,-0.5942739506034,-5.5998448298755e-05,1.3470508338092,-0.0058708165831406,-0.07082266974086,621.00152713815,621.00152713815,622.07128152699,622.07128152699,621.46608226523,621.62542361524,622.92101951552,622.4031081157,620.12107514727,620.92553998808,622.02591160919,621.10869470278,622.32021726775,621.82350074657,622.6002462358,623.24941384707,622.30739557119,620.99947063557,621.20167574301,622.69813974082,622.27435607457,620.11422503093,620.59969267075,622.32021726775,621.99365482907,621.39701036755,621.98494451971,622.05088089869,623.00761181538,622.51269345163,620.30886077236,621.39082729122,622.10570118931,620.94346197573,622.81065856734,622.23386520713,622.63397153361,623.25333024255,622.59067369536,621.45126235444,622.52673606118,623.04836924751,621.88154526575,622.81065856734,622.61994204304,622.61994204304,620.50096277148,620.50096277148,22648.759155584,0.0035961680338312,846.71825929403,-0.018901303066055,838.04983386884,-0.016603748912688,0
3.6030426025391e-05,805354539.00901,802670071.56005,807595828.4169,0.062463104089687,0.64760436919854,-0.22576307227148,1465010961.3645,2.0588860254609e-06,1.0728264042288e-05,1.9437170688962e-06,1.0000600548367,496.26861349989,496.26861349989,497.33840862952,497.33840862952,496.73316337457,496.89253263014,498.18813106158,497.67022495766,495.38816242537,496.19265848641,497.29304077145,496.37580952617,497.58733817417,497.09057100275,497.86735670088,498.51651732701,497.57449287223,496.26655653124,496.46878194941,497.96525970762,497.54147704305,495.38131580668,495.86680522071,497.58733817417,497.26078455837,496.66413271271,497.25202368622,497.3179911601,498.27471313173,497.77980642274,495.57594606734,496.65794928528,497.37282828786,496.21056695411,498.07774189684,497.50093698237,497.90107990432,498.52042544369,497.85777574964,496.71833536106,497.79384982852,498.31548057017,497.14863781889,498.07774189684,497.8870504695,497.8870504695,495.76806158029,495.76806158029,1.4928465770934,0.00051343236348003,2.2919379279078e-06,0.085188778224149,0.0040045832271366,-4.0586983962162,-1.08338278868,-2.1189406918842e-06,0.0038936103353822,-0.00083576261578044,-0.00010769932387166,0.00019922007557269,0.0044236519387205,13.400596291329,0.0025084874176359,0.00046399284134765,0.002446766811851,0.0031625160991344,-1.6051819894114,-0.55353574070524,-7.9552834846728e-07,0.0010503216186793,-0.0096139746144355,-0.40959912877144,-4.2231028502212e-05,0.0017836746331254,0.0024630907345642,-5.0233232627879,-1.672252267708,8.6260670985454e-06,0.0037133020651737,-0.00035455957218164,0.0012652814756523,0.012507259127898,0.00016285615859064,6.8687296410146,0.0012662260572166,6.2411619554764e-05,0.044042717437601,11.525423631258,0.002800109467479,-0.16724277803732,8.4064530496649e-05,-0.59317920429334,-5.571539208882e-05,1.3503825968405,-0.0058583182345087,-0.071865003957222,621.00148176047,621.00148176047,622.07127689011,622.07127689011,621.46603163515,621.62540089073,622.92099932216,622.40309321824,620.12103068596,620.925526747,622.02590903204,621.10867778675,622.32020643475,621.82343926333,622.60022496146,623.2493855876,622.30736113282,620.99942479182,621.20165020999,622.6981279682,622.27434530364,620.11418406727,620.5996734813,622.32020643475,621.99365281896,621.3970009733,621.98489194681,622.05085942068,623.00758139232,622.51267468332,620.30881432792,621.39081754586,622.10569654844,620.9434352147,622.81061015742,622.23380524295,622.6339481649,623.25329370427,622.59064401023,621.45120362164,622.5267180891,623.04834883075,621.88150607948,622.81061015742,622.61991873008,622.61991873008,620.50092984087,620.50092984087,19843.146349125,0.0035961756742715,846.71542929764,-0.018889766435344,838.0507803894,-0.016579689851746,0
3.6030578613281e-05,805354386.31066,802669577.67688,807595433.92036,0.062463104089687,0.64760436919854,-0.22576307227148,1465014537.4377,2.0600461519713e-06,1.0728366145801e-05,1.9461609920822e-06,1.0000600610557,496.26851227143,496.26851227143,497.33837377068,497.33837377068,496.73300759541,496.89236217817,498.18806930822,497.67011806462,495.38804063017,496.19253783941,497.29302301789,496.3757556174,497.58726391833,497.09044180186,497.86721223089,498.51645084165,497.57437166374,496.26639286842,496.46861077574,497.96521218909,497.54139831979,495.38117980104,495.86666723052,497.58726391833,497.26076999543,496.66409090041,497.2518819901,497.31782144501,498.27463431944,497.77967423411,495.5758358399,496.65784709899,497.3727967016,496.21049688198,498.07763345775,497.50080990091,497.90092176878,498.52034800929,497.85764018984,496.71821120686,497.79372709507,498.31541776958,497.14852817873,498.07763345775,497.88689099109,497.88689099109,495.7679014866,495.7679014866,1.5118484345587,0.00052573221310025,2.2697907031288e-06,0.10507095619382,0.0049057044861645,-3.7655877913541,-1.0732904564567,-2.2977569400862e-06,0.0040794654846885,-0.00087736786086346,-0.00011115125102158,0.00022536083104521,0.0024986776926301,14.818709069648,0.0048065327710557,0.00047746562749712,0.0023374237729022,0.00375918619644,-1.434959646087,-0.57571760624269,-8.1424586945508e-07,0.0011691947874059,-0.010141595998972,-0.37019673670021,-4.2047203768268e-05,0.002528394389397,0.0033121833580527,-4.4573201269711,-1.6362770471901,7.7411674858819e-06,0.0038601110846855,-0.00036570168812663,0.0011525608624436,0.012540645160824,0.00026400463701503,7.2239848916987,0.0018873175266624,6.4074283012619e-05,0.037274898077056,12.091410533165,0.0065711660387204,-0.1516108618551,9.1586898323736e-05,-0.5510620788834,-5.9791841178408e-05,1.1160483762237,-0.0060778310887694,-0.067941412902197,621.00138843842,621.00138843842,622.07124993767,622.07124993767,621.4658837624,621.62523834517,622.92094547522,622.40299423161,620.12091679717,620.92541400641,622.02589918488,621.10863178439,622.32014008532,621.82331796886,622.60008839788,623.24932700865,622.30724783074,620.99926903541,621.20148694273,622.69808835608,622.27427448679,620.11405596803,620.59954339752,622.32014008532,621.99364616242,621.3969670674,621.98475815709,622.050697612,623.00751048643,622.5125504011,620.30871200689,621.39072326598,622.1056728686,620.94337304897,622.81050962475,622.2336860679,622.63379793578,623.25322417628,622.59051635684,621.45108737385,622.52660326207,623.04829393658,621.88140434572,622.81050962475,622.61976715808,622.61976715808,620.50077765359,620.50077765359,19486.998468547,0.0035965551254167,846.53962189312,-0.018779667221312,838.03779770784,-0.016576378035211,0
3.6030883789062e-05,805356387.71739,802668449.3616,807581798.18202,0.062463104089687,0.64760436919854,-0.22576307227148,1465021464.7035,2.0536412718198e-06,1.0728420320472e-05,1.9462862903285e-06,1.0000600816398,496.27072233709,496.27072233709,497.33090239097,497.33090239097,496.73187845032,496.89125089189,498.17189044609,497.66606455298,495.38994577307,496.1920517604,497.28672567189,496.37411119565,497.58498414048,497.09248070543,497.86708405342,498.51172136312,497.57506417308,496.26605614916,496.46782851188,497.95297060563,497.53591273715,495.38252929479,495.86658410319,497.58498414048,497.25337504798,496.66052610633,497.24959113871,497.31659736823,498.26225985215,497.77697551144,495.57809950146,496.65681881038,497.36797507889,496.2105361336,498.07301542791,497.50123266434,497.90085205872,498.51502671357,497.85767128467,496.72097925781,497.79314694441,498.31157344912,497.14988383538,498.07301542791,497.88601070699,497.88601070699,495.76809406256,495.76809406256,1.4516037665611,0.00018042881953856,1.8318560332266e-06,0.032211190961168,0.0034564081888237,-3.7698486624872,-0.84325513179346,2.6669282313206e-06,0.001556324846841,-0.00090540468721974,-7.8120025398867e-05,0.00015059192402993,0.0037703953669491,13.009926524286,0.0020854851338635,0.00049074807877905,0.0023603476191881,0.002735362105707,-1.428103782803,-0.35003238973106,1.534652226875e-07,4.3976025597604e-05,-0.010416137657291,-0.33159096895679,-3.0717800628934e-05,0.00041205693393523,0.00219761347761,-4.4024943920907,-1.1756640673525,1.6177562605418e-05,0.0014232700591697,-0.00037329701824025,0.0012297940600762,0.012389791030287,0.00014384335129987,6.8425325082106,0.00091918055864183,6.5228188285646e-05,0.037162816597378,11.192220849997,0.0028219747221678,-0.13375894778051,9.0724721492824e-05,-0.24154680696278,-4.7217878967421e-05,1.1068258166305,-0.0062966627897075,-0.067030707542958,621.00621113049,621.00621113049,622.06639118437,622.06639118437,621.46736724371,621.62673968528,622.90737923949,622.40155334637,620.12543456646,620.9275405538,622.02221446529,621.10959998904,622.32047293387,621.82796949882,622.60257284681,623.24721015652,622.31055296647,621.00154494256,621.20331730528,622.68845939902,622.27140153055,620.11801808818,620.60207289658,622.32047293387,621.98886384137,621.39601489972,621.9850799321,622.05208616163,622.99774864555,622.51246430484,620.31358829486,621.39230760377,622.10346387229,620.94602492699,622.8085042213,622.23672145774,622.63634085211,623.25051550696,622.59316007806,621.4564680512,622.5286357378,623.04706224251,621.88537262877,622.8085042213,622.62149950038,622.62149950038,620.50358285595,620.50358285595,20394.652502016,0.0035962875682163,846.76696124544,-0.019153721069081,838.09873899698,-0.016905218662124,0
3.6031494140625e-05,805355850.19942,802667275.37718,807581336.74975,0.062463104089687,0.64760436919854,-0.22576307227148,1465030960.6255,2.0537529595503e-06,1.0728598022391e-05,1.94622770449e-06,1.0000600952514,496.27033533729,496.27033533729,497.33084212138,497.33084212138,496.73148082493,496.89108860925,498.17172486298,497.66594411219,495.38956896007,496.19193794189,497.2866769631,496.37394251566,497.58488672521,497.09198418829,497.86692576108,498.51149082088,497.57478292159,496.26569514133,496.46763894945,497.9528656191,497.53581654122,495.38218702246,495.86642550595,497.58488672521,497.25332989156,496.6604192214,497.24917838244,497.31644689928,498.26201782287,497.77683230123,495.57770299695,496.65673092718,497.36791406199,496.21028987668,498.07263333351,497.50075376619,497.90068157058,498.51473370498,497.85743700233,496.72049777484,497.79300788632,498.31140245695,497.14955627716,498.07263333351,497.88584068194,497.88584068194,495.76783133122,495.76783133122,1.4521942391899,0.00052395815796651,1.8323969462232e-06,0.031631933909291,0.0034316653790388,-3.7677961478092,-0.83629461942187,2.5860887872496e-06,0.0033284328791919,-0.00090628369586683,-7.7931337972481e-05,0.00015111911431009,0.0037987990788488,13.063856997045,0.0020519300285502,0.00049030639272137,0.0023595301401827,0.0027104102231252,-1.4275311133604,-0.3455729481636,1.472972945479e-07,0.00077450057693974,-0.010428250753424,-0.29142278908549,-3.0737777370733e-05,0.000405672148871,0.0021877259247147,-4.3990996739952,-1.1685054077288,1.5560252310657e-05,0.0033750843515015,-0.00037304367262105,0.0012149739982658,0.012383097511998,0.00014408822275214,6.8597612550443,0.00092949711230975,6.5111513004083e-05,0.037143112685255,11.216132148514,0.0027089557646326,-0.11719239291992,9.4117725018489e-05,-0.23821003361227,-5.2664551398405e-05,1.1061158317152,-0.0063056450609606,-0.066994091913211,621.00585487443,621.00585487443,622.06636165852,622.06636165852,621.46700036207,621.62660814639,622.90724440013,622.40146364933,620.12508849722,620.92745747903,622.02219650024,621.1094620528,622.32040626235,621.82750372543,622.60244529822,623.24701035803,622.31030245873,621.00121467847,621.2031584866,622.68838515625,622.27133607836,620.11770655961,620.60194504309,622.32040626235,621.9888494287,621.39593875854,621.98469791958,622.05196643642,622.99753736001,622.51235183837,620.3132225341,621.39225046432,622.10343359913,620.94580941382,622.80815287065,622.23627330333,622.63620110772,623.25025324213,622.59295653947,621.45601731199,622.52852742346,623.0469219941,621.8850758143,622.80815287065,622.62136021908,622.62136021908,620.50335086836,620.50335086836,15775.451647278,0.003596357368253,846.79754928319,-0.019126632357525,838.11637382977,-0.016885441767243,0
3.603271484375e-05,805354732.7133,802664960.15421,807580414.81087,0.062463104089687,0.64760436919854,-0.22576307227148,1465049890.3916,2.0546184558713e-06,1.0728970846598e-05,1.9466510454933e-06,1.0000601239214,496.26955233627,496.26955233627,497.33072384671,497.33072384671,496.73068470359,496.89077256216,498.17138764536,497.66570125411,495.38882117472,496.19172537921,497.28658299921,496.37360714725,497.58469236108,497.09097285753,497.86660545444,498.51101529599,497.57420715599,496.26497895561,496.46727216165,497.95265313349,497.53562380975,495.38151322016,495.86612550945,497.58469236108,497.25324313884,496.66020894151,497.24834546974,497.31614970589,498.26152401928,497.77654245349,495.57691006903,496.65656601027,497.36779481782,496.20979625065,498.07185359333,497.49977736276,497.90033593687,498.51413079889,497.85695701661,496.71951865574,497.79272739916,498.31105046287,497.14888778384,498.07185359333,497.8854956963,497.8854956963,495.7673207559,495.7673207559,1.4776385525676,0.0005654787940058,1.8044573364452e-06,0.048840256608905,0.0034648506090725,-3.7654836103428,-0.94081120939782,-1.8330778537179e-06,0.0041333114966794,-0.00089596917254171,-8.6537292182638e-05,0.00015839224292704,0.0031675355418513,13.341899359097,0.0037082847137725,0.00048994302642549,0.0023483442806554,0.0027392385079878,-1.4321501458008,-0.43504032253863,-7.2385772839726e-07,0.0012664582077484,-0.01032900622528,-0.24062226342072,-3.1087132287994e-05,0.00063290924402515,0.0022041724176436,-4.4012904477944,-1.2629456626622,7.3429152107518e-06,0.0039704490356338,-0.00037065085663401,0.0011112870991141,0.012501919062958,0.00014504542676864,6.8871414925697,0.0017809094671916,6.5280206986881e-05,0.037047995924178,11.367902458063,0.0043979371693397,-0.095981997193651,9.3579205904322e-05,-0.26314562797881,-9.5683332173243e-05,1.1074581537708,-0.0062764631550143,-0.067153240880397,621.0051342271,621.0051342271,622.06630573754,622.06630573754,621.46626659442,621.62635445299,622.90696953619,622.40128314494,620.12440306555,620.92730727004,622.02216489004,621.10918903808,622.32027425191,621.82655474836,622.60218734527,623.24659718682,622.30978904682,621.00056084644,621.20285405248,622.68823502432,622.27120570058,620.11709511099,620.60170740028,622.32027425191,621.98882502967,621.39579083234,621.98392736057,622.05173159672,622.99710591012,622.51212434432,620.31249195986,621.3921479011,622.10337670865,620.94537814148,622.80743548416,622.23535925359,622.6359178277,623.24971268972,622.59253890744,621.45510054657,622.52830928999,623.0466323537,621.88446967467,622.80743548416,622.62107758713,622.62107758713,620.50290264673,620.50290264673,13890.206168586,0.0035965479771013,846.74637205875,-0.018940144800488,838.11060238674,-0.016727921566932,0
3.603515625e-05,805350760.94236,802662015.32859,807586599.75903,0.062463104089687,0.64760436919854,-0.22576307227148,1457156212.4877,2.0557213181852e-06,1.0729661794056e-05,1.9354078763856e-06,1.0000601420765,496.26623167953,496.26623167953,497.330778634,497.330778634,496.73025789263,496.9006277535,498.17079958751,497.66731773144,495.38722738481,496.19588584288,497.28649750785,496.37233425258,497.58593593281,497.08694175,497.87001117281,498.50933661809,497.57304914046,496.26599025245,496.47525616712,497.95253134488,497.53653169632,495.38147020833,495.87072061783,497.58593593281,497.25303313468,496.65960101906,497.24676670422,497.32360803447,498.2602710062,497.77896438313,495.57423024847,496.65982996367,497.36803113439,496.20775395967,498.06923523444,497.49605315096,497.90425521857,498.51179155515,497.8573449327,496.71548957658,497.79536515223,498.31029812332,497.14654294396,498.06923523444,497.88919518888,497.88919518888,495.77088871055,495.77088871055,1.3786289461298,0.00049068911938842,2.1834543053971e-06,0.052100014805646,0.00044671993313642,-3.6461384322739,-0.86671296168444,-3.7828874309261e-06,0.003811724038114,-0.00014076869892082,-5.9927879305971e-05,0.00013559569374116,0.0047727358476864,12.834599765484,0.0047329152274475,0.00051552172057911,0.0023187794380485,0.00059176896669373,-1.4445037235058,-0.41774653069754,-8.1028067704704e-07,0.0017325290622286,-9.2409675379461e-05,-0.223988558105,-2.7845679458196e-05,0.00071595921294561,0.00026277386693738,-4.6993366772396,-1.158752828182,2.154783793704e-06,0.0035571408111831,-0.00031908597290578,0.002828216681733,0.01106658064128,2.4251830128748e-05,6.7725758027675,0.0020187799676002,6.9714829059197e-05,0.037080624270798,10.926742901386,0.0061468136352123,-0.17867905620784,8.8194284526914e-05,-0.18218465120614,-2.7446458624468e-05,1.1091039105992,0.0002734745432761,-0.053519110823666,621.00029399152,621.00029399152,622.064840946,622.064840946,621.46432020463,621.6346900655,622.9048618995,622.40138004344,620.12128969681,620.92994815487,622.02055981985,621.10639656458,622.31999824481,621.821004062,622.6040734848,623.24339893009,622.30711145245,621.00005256444,621.20931847912,622.68659365688,622.27059400832,620.11553252032,620.60478292982,622.31999824481,621.98709544667,621.39366333106,621.98082901621,622.05767034646,622.9943333182,622.51302669513,620.30829256047,621.39389227566,622.10209344639,620.94181627167,622.80329754644,622.23011546296,622.63831753056,623.24585386715,622.5914072447,621.44955188858,622.52942746423,623.04436043532,621.88060525596,622.80329754644,622.62325750087,622.62325750087,620.50495102254,620.50495102254,24987.791809369,0.0035966709218304,847.05874238773,-0.019302574265051,838.19353641998,-0.017027339358764,0
3.60400390625e-05,805346190.0104,802652395.49084,807582863.72276,0.062463104089687,0.64760436919854,-0.22576307227148,1457157622.195,2.0556938383598e-06,1.0731124252275e-05,1.9386838079413e-06,1.0000602499142,496.26285459593,496.26285459593,497.33029213066,497.33029213066,496.72690661426,496.89932928374,498.16942063756,497.66632818438,495.38401945024,496.19499338344,497.28610683841,496.37091720937,497.5851376939,497.0825577151,497.86870275784,498.50737223365,497.57064386611,496.26298374573,496.473741966,497.95166713588,497.53574513617,495.37860631842,495.86946293242,497.5851376939,497.25267239097,496.65871756297,497.24325456256,497.32239403711,498.25823476261,497.77778383594,495.57080527444,496.65914020158,497.36753753783,496.20565488082,498.06595703331,497.49185835041,497.9028447039,498.5092831218,497.85536370575,496.71123146616,497.79421791746,498.30885263333,497.14371302434,498.06595703331,497.8877891324,497.8877891324,495.76875229017,495.76875229017,1.4528228871584,0.0004961113159254,2.194619861388e-06,0.052403698651333,0.0037585019907218,-3.6410940812863,-0.88942865023275,-4.422986458299e-06,0.0038937205353725,-0.00013745839158136,-5.9070484338088e-05,0.00015627326617037,0.0053313218327994,13.953274505409,0.0041444566303022,0.00051543238469884,0.0023048858357499,0.0029899071893163,-1.4449807591439,-0.42093430474379,-8.9641462941278e-07,0.0017983166087723,-8.5247964058227e-05,-0.12702048083835,-2.8188686488494e-05,0.00072255607452433,0.0023945584482793,-4.6742859230804,-1.232168046984,-1.5193183073415e-06,0.0036120465629844,-0.00031722076260256,0.0027341171186216,0.012067368292029,0.00015736982790627,7.0122333596898,0.0019104087097256,6.9998932328114e-05,0.036980255168586,11.922104074715,0.0049406505997522,-0.10138572321959,8.8160315695058e-05,-0.26175232595109,-6.1191024961038e-05,1.1102783757962,0.00052884219481848,-0.053322609893253,620.99721359918,620.99721359918,622.06465113391,622.06465113391,621.46126561751,621.63368828699,622.90377964081,622.40068718764,620.11837845349,620.92935238669,622.02046584166,621.10527621262,622.31949669715,621.81691671835,622.60306176109,623.2417312369,622.30500286936,620.99734274898,621.20810096926,622.68602613913,622.27010413942,620.11296532167,620.60382193568,622.31949669715,621.98703139422,621.39307656623,621.97761356581,622.05675304036,622.99259376586,622.5121428392,620.30516427769,621.39349920483,622.10189654108,620.94001388408,622.80031603656,622.22621735366,622.63720370715,623.24364212505,622.589722709,621.44559046941,622.52857692071,623.04321163658,621.8780720276,622.80031603656,622.62214813565,622.62214813565,620.50311129342,620.50311129342,92230.330129863,0.0035972457949666,847.1197422987,-0.019177512521971,838.27682342686,-0.016991421032737,0
3.6044921875e-05,805341417.94864,802642400.38225,807579055.02583,0.062463104089687,0.64760436919854,-0.22576307227148,1457159221.7179,2.0562306207605e-06,1.0732579408761e-05,1.9388985478527e-06,1.000060367388,496.2591874128,496.2591874128,497.32979109281,497.32979109281,496.72334540223,496.89802403297,498.16796747158,497.66532650004,495.38058986323,496.19409872178,497.28569830304,496.36944950457,497.58432094329,497.07710043195,497.86737742055,498.50529662903,497.56813918064,496.25982046426,496.47220468137,497.95076002727,497.53494588246,495.37558761375,495.86818712373,497.58432094329,497.25229494942,496.65780970821,497.23949184297,497.32117987058,498.25608148521,497.77659118511,495.56708861991,496.65845226357,497.36702582988,496.20345731219,498.06243804917,497.48711343855,497.9014185936,498.50661624906,497.85332486588,496.70606268271,497.79305264088,498.30733719337,497.14072500452,498.06243804917,497.88636975005,497.88636975005,495.76654296909,495.76654296909,1.4309218639836,0.00050153173675046,2.1999272508794e-06,0.051914295476689,0.0036705965480886,-3.6383635699209,-0.88579100574768,-4.4954323069187e-06,0.0039409983781133,-0.00013745717494849,-5.882115198906e-05,0.00015453561646203,0.0052659344109688,16.43493497199,0.0040210990314031,0.00051587643924878,0.0023030980380221,0.0029090809223681,-1.4451041722559,-0.41785934289544,-9.1556256598556e-07,0.0018224000256702,-8.5362057174471e-05,-0.085689927950125,-2.8267505904494e-05,0.00071622345209684,0.0023539193590774,-4.6626772642561,-1.2287761097745,-1.5585719130818e-06,0.0036546570418824,-0.00031704387865074,0.0025803916965085,0.01195637656647,0.00015710083043302,6.8012051526813,0.0018446467350704,7.0025304792442e-05,0.037008126330019,11.270139632832,0.0048083004723804,-0.067909242548103,8.7966253128979e-05,-0.26098815240955,-5.7112678371052e-05,1.1121997667496,0.00051879680913002,-0.053299994620374,620.99412238,620.99412238,622.06472606001,622.06472606001,621.45828036943,621.63295900017,622.90290243878,622.40026146724,620.11552483043,620.92903368898,622.02063327024,621.10438447177,622.31925591049,621.81203539915,622.60231238775,623.24023159623,622.30307414784,620.99475543146,621.20713964857,622.68569499447,622.26988084966,620.11052258095,620.60312209093,622.31925591049,621.98722991662,621.39274467541,621.97442681017,622.05611483778,622.99101645241,622.51152615231,620.30202358711,621.39338723077,622.10196079708,620.93839227939,622.79737301637,622.22204840575,622.6363535608,623.24155121626,622.58825983308,621.44099764991,622.52798760808,623.04227216057,621.87565997172,622.79737301637,622.62130471725,622.62130471725,620.50147793629,620.50147793629,325328.48600932,0.0035977322675381,847.20702717704,-0.019182325543421,838.36327599983,-0.016988856800037,0
3.6046142578125e-05,805340330.92638,802639977.62113,807577948.47003,0.062463104089687,0.64760436919854,-0.22576307227148,1457159676.7107,2.0566157448771e-06,1.0732943991971e-05,1.9424215437606e-06,1.0000603968583,496.25842854401,496.25842854401,497.32965464035,497.32965464035,496.72253215096,496.89760091775,498.1676207577,497.66502511221,495.37984728907,496.19381793594,497.28559829309,496.36911136786,497.58409267942,497.07612382129,497.86698104778,498.50482825889,497.56754062489,496.25906996374,496.47174210223,497.95053214575,497.53471039304,495.37489760423,495.86781619128,497.58409267942,497.25220258401,496.65758864336,497.23865754423,497.32077425882,498.25558647761,497.7762284562,495.56631574133,496.65822787859,497.36689459931,496.2029706187,498.06167443071,497.48616823299,497.90098720657,498.50602889749,497.8527966886,496.70512079363,497.79271003703,498.30697962136,497.14005645397,498.06167443071,497.88593635651,497.88593635651,495.76597222756,495.76597222756,1.432036804754,0.00050234650718668,2.2595397885145e-06,0.051992519598433,0.0036881218815857,-3.6393160724999,-0.88960201511359,-4.5095513340218e-06,0.0039510925596373,-0.00013744629094471,-5.8712867270764e-05,0.00015441379735781,0.0051990175881024,13.778814963675,0.0039854747456067,0.00051636720595348,0.0023049003337167,0.0028893347225743,-1.4459787307368,-0.41974942227038,-9.121950004197e-07,0.0018280553670466,-8.6633978123138e-05,-0.077524003428323,-2.8281290336027e-05,0.0007150163640336,0.002377664277219,-4.6606727960578,-1.2334651790783,-1.5999900052256e-06,0.0036629699271978,-0.00031704106948053,0.0025433707409296,0.01195381205639,0.00015875350987549,6.8067271978007,0.0018260385236262,7.0086632984891e-05,0.037035969385276,11.179438278967,0.0047735528160753,-0.061385210869698,8.8041431516374e-05,-0.26287993517931,-5.6368584285123e-05,1.1129188314563,0.00049642940305471,-0.053345294869616,620.99343775314,620.99343775314,622.06466384948,622.06466384948,621.45754136009,621.63261012687,622.90262996683,622.40003432133,620.1148564982,620.92882714507,622.02060750222,621.10412057699,622.31910188855,621.81113303041,622.60199025691,623.23983746802,622.30254983402,620.99407917286,621.20675131135,622.68554135487,622.26971960217,620.10990681336,620.60282540041,622.31910188855,621.98721179314,621.39259785248,621.97366675336,622.05578346795,622.99059568674,622.51123766533,620.30132495046,621.39323708772,622.10190380843,620.93797982783,622.79668363984,622.22117744212,622.6359964157,623.24103810662,622.58780589772,621.44013000276,622.52771924615,623.04198883049,621.8750656631,622.79668363984,622.62094556564,622.62094556564,620.50098143669,620.50098143669,632297.44577903,0.0035979658484021,847.22054781593,-0.019178017656657,838.3842554293,-0.016981196131956,0
3.6048583984375e-05,805338182.16453,802635420.88429,807576106.27302,0.062463104089687,0.64760436919854,-0.22576307227148,1457160571.6453,2.0564420516264e-06,1.0733671969765e-05,1.9424850638488e-06,1.0000604501835,496.25692089614,496.25692089614,497.32941052121,497.32941052121,496.72097354182,496.89697662918,498.16694863222,497.66454337921,495.37839183618,496.19338781749,497.28540122312,496.36845838218,497.58370477803,497.07417373858,497.86635338719,498.50389986748,497.56643139127,496.25766336163,496.47101515183,497.950101688,497.53432410545,495.37357830309,495.86721508488,497.58370477803,497.25201904942,496.65717322355,497.23703091773,497.32018892172,498.25461295297,497.77565755738,495.56478021152,496.65789222892,497.36664983904,496.20201601104,498.06015533309,497.48428038689,497.90031177644,498.50485407374,497.85186850513,496.7032369528,497.79215782332,498.30628986702,497.1387707433,498.06015533309,497.88526174772,497.88526174772,495.76496183493,495.76496183493,1.4265680204049,0.0005030710612895,2.2651878403337e-06,0.051441511009861,0.003654708337594,-3.6555590261197,-0.88693036316016,-4.5671548095263e-06,0.0039242165134094,-0.00013727659350899,-5.8695542074003e-05,0.0001532230320344,0.0051757897131402,13.200459381912,0.0039135209659077,0.00051651429593933,0.0022904563610181,0.0028565053652857,-1.4469033883493,-0.41728853067764,-9.2145504867246e-07,0.001798563439033,-8.660822907307e-05,-0.066803160155381,-2.8319612153027e-05,0.00070716243054532,0.002363842504022,-4.675334239652,-1.2307807148471,-1.9213929685056e-06,0.0036537658399174,-0.00031689054841278,0.0025148495108833,0.011891857734829,0.00015883351873033,6.7919740534784,0.0017902111207927,7.0083532979252e-05,0.036773082963638,11.101639871666,0.004702158111495,-0.052842558882944,8.8086297830736e-05,-0.26547722345059,-5.6694670295167e-05,1.1106750660056,0.00049188086602678,-0.05327406587578,620.99204854894,620.99204854894,622.064538174,622.064538174,621.45610119462,621.63210428197,622.90207628502,622.39967103201,620.11351948898,620.92851547029,622.02052887592,621.10358603498,622.31883243083,621.80930139138,622.60148103998,623.23902752028,622.30155904406,620.99279101442,621.20614280463,622.6852293408,622.26945175824,620.10870595589,620.60234273768,622.31883243083,621.98714670222,621.39230087635,621.97215857052,622.05531657452,622.98974060577,622.51078521018,620.29990786432,621.39301988172,622.10177749184,620.93714366384,622.79528298589,622.21940803969,622.63543942924,623.23998172654,622.58699615793,621.4383646056,622.52728547612,623.04141751981,621.8738983961,622.79528298589,622.62038940052,622.62038940052,620.50008948773,620.50008948773,153791.52994115,0.0035982035438837,847.26763408227,-0.019167508152828,838.42882661325,-0.016979658928857,0
3.6053466796875e-05,805333890.34806,802626291.78354,807572384.38938,0.062463104089687,0.64760436919854,-0.22576307227148,1457162432.9249,2.0567534109887e-06,1.0735127158871e-05,1.9429531479387e-06,1.0000605588373,496.25391133136,496.25391133136,497.32892105875,497.32892105875,496.71785050077,496.89567994464,498.16560407276,497.66356843857,495.37548076115,496.19250727776,497.28500740185,496.36715404298,497.58292155535,497.07028093412,497.8650769022,498.502045633,497.56420968454,496.25483900923,496.46952149786,497.94923966451,497.53354458962,495.37093380151,495.86599002039,497.58292155535,497.25165287579,496.65634264145,497.23377637877,497.31897411407,498.25266683113,497.77449918327,495.56171288002,496.65720493333,497.36615886018,496.200109987,498.05712081659,497.48051080545,497.89893580058,498.502508624,497.85000251071,496.69947516756,497.79103737131,498.30491013448,497.13620090591,498.05712081659,497.88388787394,497.88388787394,495.76292093257,495.76292093257,1.4184665825684,0.00050231111394596,2.2711497499544e-06,0.050377690773267,0.0035971871934472,-3.6519627706389,-0.88174202242388,-4.5860513709906e-06,0.0039304713127826,-0.00013736742744137,-5.8755466473869e-05,0.00015174145250778,0.0051361651015032,12.950641283682,0.0038006998277025,0.00052033140665689,0.0022929608418964,0.0027982775369719,-1.4466931977256,-0.41221685961143,-9.293477844754e-07,0.0018022141987521,-8.6828548469009e-05,-0.052711829781459,-2.8398208574874e-05,0.00069251270029223,0.0023411448819952,-4.6619425951276,-1.226381521615,-1.884189699591e-06,0.0036556664185472,-0.00031731742411061,0.0024603833131938,0.011810232296859,0.00015922136606104,6.7768886359308,0.0017313921708515,7.0817665462443e-05,0.036813046842304,11.03643401967,0.0045924915183048,-0.041558061440146,8.8206915517223e-05,-0.26375238083103,-5.3664201414339e-05,1.112431964302,0.0004838358196935,-0.053256887717459,620.98927828338,620.98927828338,622.06428801077,622.06428801077,621.45321745279,621.63104689665,622.90097102478,622.39893539059,620.11084771316,620.92787422977,622.02037435386,621.102520995,622.31828850737,621.80564788613,622.60044385421,623.23741258501,622.29957663656,620.99020596124,621.20488844988,622.68460661652,622.26891154163,620.10630075352,620.6013569724,622.31828850737,621.9870198278,621.39170959347,621.96914333079,622.05434106608,622.98803378314,622.50986613528,620.29707983203,621.39257188534,622.1015258122,620.93547693902,622.7924877686,622.21587775746,622.6343027526,623.23787557601,622.58536946273,621.43484211957,622.52640432332,623.04027708649,621.87156785792,622.7924877686,622.61925482595,622.61925482595,620.49828788459,620.49828788459,55671.770800361,0.0035986900328749,847.35598286613,-0.019166767493932,838.51812097123,-0.016975639834956,0
3.6063232421875e-05,805325329.69246,802608073.61882,807564961.437,0.062463104089687,0.64760436919854,-0.22576307227148,1457166326.7395,2.0574821291546e-06,1.0738036429153e-05,1.9438321997897e-06,1.0000607746192,496.24791140306,496.24791140306,497.32794720733,497.32794720733,496.7116224356,496.89308634362,498.16292620778,497.66162170591,495.36967556403,496.19074557676,497.28422455354,496.36455371262,497.58135791693,497.06252259697,497.86252489357,498.49835055286,497.55977683386,496.24920448238,496.46653552358,497.94752377045,497.53198954546,495.36565832544,495.8635408404,497.58135791693,497.25092574687,496.65468745442,497.22728803741,497.31654383171,498.24878950762,497.77218474826,495.55559745556,496.65582964213,497.36518118111,496.19630975666,498.05107329255,497.47299785404,497.89618465838,498.49783500889,497.84627716957,496.69197624153,497.78879785371,498.30216003247,497.13107564632,498.05107329255,497.881141329,497.881141329,495.75884580342,495.75884580342,1.4072996567457,0.00050243886204455,2.2878916581558e-06,0.048589883323983,0.0035096893772109,-3.6499664136055,-0.87444694932293,-4.5962961784925e-06,0.0039295312569707,-0.00013963567784481,-5.8946374949885e-05,0.00014935174652431,0.0050505369871,12.779570900485,0.003647517748784,0.00052527989088658,0.0023126562604249,0.0027069469310009,-1.4483048649947,-0.40438598500734,-9.3963970804815e-07,0.0017974717576144,-8.9310572975176e-05,-0.037468760394769,-2.8599516329061e-05,0.00066685301326822,0.0023092009195083,-4.6452829733869,-1.2205182212177,-1.7620460367981e-06,0.0036554848767644,-0.0003194496215756,0.0023962611285631,0.011690511278737,0.00016025243230654,6.7594325213767,0.0016529357530829,7.1534359808963e-05,0.037009388755304,10.962865628433,0.0044402248922731,-0.029175075475,8.883044240038e-05,-0.26096958138293,-4.9722188941941e-05,1.1169305465501,0.00047078302203307,-0.053433598697924,620.98374958536,620.98374958536,622.06378538963,622.06378538963,621.44746061791,621.62892452592,622.89876439008,622.39745988821,620.10551374634,620.92658375907,622.02006273584,621.10039189492,622.31719609923,621.79836077927,622.59836307587,623.23418873516,622.29561501616,620.98504266468,621.20237370588,622.68336195275,622.26782772776,620.10149650774,620.5993790227,622.31719609923,621.98676392917,621.39052563672,621.96312621971,622.05238201401,622.98462768992,622.50802293056,620.29143563787,621.39166782443,622.10101936341,620.93214793896,622.78691147485,622.20883603634,622.63202284068,623.2336731912,622.58211535187,621.42781442383,622.52463603601,623.03799821478,621.86691382862,622.78691147485,622.6169795113,622.6169795113,620.49468398572,620.49468398572,24059.525514738,0.003599608099351,847.521739546,-0.01917081612179,838.69664521053,-0.016958648756803,0
3.6082763671875e-05,805309767.10613,802580263.54911,807573549.70848,0.062463104089687,0.64760436919854,-0.22576307227148,1457174710.9966,2.0587662352542e-06,1.0743849124291e-05,1.9447627173485e-06,1.0000611198771,496.23652877483,496.23652877483,497.33564268592,497.33564268592,496.70474896669,496.88941901406,498.17823856365,497.66297588206,495.35891713707,496.18781082276,497.29123636818,496.36228402737,497.5819085941,497.05016397887,497.85800884739,498.49995069059,497.5517090864,496.24164270638,496.46206133849,497.9599559187,497.53595654505,495.35611984983,495.85903151934,497.5819085941,497.25924500321,496.65627349916,497.22193357492,497.31315354892,498.25863962933,497.77107421734,495.54409024041,496.65438318751,497.37010902923,496.19025865875,498.0495375844,497.46327144083,497.89105462588,498.49897884555,497.83977440293,496.67864032513,497.7856357477,498.30369700462,497.12151135455,498.0495375844,497.87689241533,497.87689241533,495.75200147837,495.75200147837,1.3955756392798,0.00050188161749952,2.2307634426764e-06,0.045620302872579,0.0033861630751931,-3.6360902414065,-0.8401450246485,-4.603036611017e-06,0.0039202530652977,-0.00014026642120234,-5.701071152229e-05,0.00014613335277354,0.0048424947724692,12.64962970001,0.0034712935761946,0.00052758319490457,0.0023082879861132,0.0025743916806435,-1.4474743508045,-0.3900411829997,-9.5775034179206e-07,0.0017937979432868,-9.0185806185381e-05,-0.024190260077763,-2.7600313936859e-05,0.00062598254121715,0.0022684789506601,-4.5860068029837,-1.207957290355,-1.5109456970856e-06,0.0036482382436877,-0.00032124674610778,0.0022789638042306,0.011550510830086,0.00016264763037887,6.750224367277,0.0015642221231957,7.1830582771331e-05,0.036974056525836,10.894666171268,0.0042597539837082,-0.01877717374705,8.9172710223755e-05,-0.25352387821158,-4.5444247301441e-05,1.1216906443652,0.00045204604083321,-0.053241318420362,620.97007950426,620.97007950426,622.06919341535,622.06919341535,621.43829969612,621.62296974349,622.91178929308,622.39652661149,620.0924678665,620.92136155219,622.02478709761,621.0958347568,622.31545932353,621.7837147083,622.59155957682,623.23350142002,622.28525981583,620.97519343581,621.19561206792,622.69350664813,622.26950727448,620.08967057926,620.59258224877,622.31545932353,621.99279573264,621.38982422859,621.95548430435,622.04670427835,622.99219035876,622.50462494677,620.27764096984,621.38793391694,622.10365975866,620.92380938818,622.78308831383,622.19682217026,622.62460535531,623.23252957498,622.57332513236,621.41219105456,622.51918647713,623.03724773405,621.85506208398,622.78308831383,622.61044314476,622.61044314476,620.4855522078,620.4855522078,13662.645348803,0.0036015670489954,847.90468695664,-0.019186152448055,839.07594841687,-0.016965858802059,0
3.6121826171875e-05,805276424.32916,802509167.41346,807544224.04332,0.062463104089687,0.64760436919854,-0.22576307227148,1457184079.0185,2.0609450281463e-06,1.0755499469641e-05,1.9518513414733e-06,1.000061944198,496.21329990083,496.21329990083,497.33183112144,497.33183112144,496.68036890001,496.87901950106,498.16770651169,497.65528434584,495.33634424209,496.18077266708,497.28816247123,496.35227162592,497.57569544773,497.01997591694,497.84785879081,498.48549589207,497.5344859132,496.21955741123,496.45015825499,497.95318791967,497.52982985728,495.3355419943,495.84931235999,497.57569544773,497.25640418173,496.64989725722,497.1965573915,497.30339797265,498.24343430963,497.76191113014,495.52036285698,496.64886292402,497.36631545139,496.17560240202,498.02590899763,497.43399353926,497.88011960717,498.48071780913,497.8252204663,496.64950463136,497.77672592994,498.29290686432,497.10165471799,498.02590899763,497.86599291163,497.86599291163,495.7359630154,495.7359630154,1.4096153296361,0.00050531041833685,2.2677291658576e-06,0.042525993058515,0.0032325336600079,-3.6402435898413,-0.83775503250491,-4.6293090577584e-06,0.0039301854460958,-0.00014011350274061,-5.7188431950192e-05,0.00014662022786002,0.0046578624997588,12.790147805525,0.003291518899415,0.00053724065431095,0.0023273805611744,0.0024036977920888,-1.4553623269466,-0.38305039414531,-9.903089507459e-07,0.0017998589312738,-8.9833910428712e-05,-0.01446707295026,-2.7968989887046e-05,0.00057705038608336,0.0022262108308485,-4.5689983315788,-1.190721098471,-1.4297158992709e-06,0.0036570099617464,-0.00032537705988703,0.0017801796202565,0.011666075452762,0.000167534599491,6.8589685668803,0.0014799488371204,7.3175168647663e-05,0.037314432272774,11.047846593533,0.0040711890596222,-0.011170082774067,9.0489436409014e-05,-0.22023584959699,-4.6621452910339e-05,1.1360171567436,0.00043034494445206,-0.053510277746992,620.94864886715,620.94864886715,622.06718008775,622.06718008775,621.41571786633,621.61436846737,622.903055478,622.39063331215,620.07169320841,620.91612163339,622.02351143754,621.08762059223,622.31104441404,621.75532488326,622.58320775712,623.22084485838,622.26983487951,620.95490637755,621.1855072213,622.68853688598,622.2651788236,620.07089096061,620.5846613263,622.31104441404,621.99175314804,621.38524622353,621.93190635781,622.03874693896,622.97878327594,622.49726009645,620.25571182329,621.38421189033,622.10166441771,620.91095136833,622.76125796394,622.16934250557,622.61546857348,623.21606677544,622.56056943261,621.38485359768,622.51207489625,623.02825583063,621.83700368431,622.76125796394,622.60134187794,622.60134187794,620.47131198171,620.47131198171,9579.1390764819,0.0036052757150832,848.59753583052,-0.019204009238148,839.78616092003,-0.017032089706999,0
3.6160888671875e-05,805241162.71857,802434329.1056,807514259.01773,0.062463104089687,0.64760436919854,-0.22576307227148,1457198617.548,2.0645492608612e-06,1.0767136755806e-05,1.9547395553272e-06,1.0000628216328,496.18821898451,496.18821898451,497.3279525975,497.3279525975,496.65460692673,496.86849224163,498.15682086053,497.6473923468,495.31220443505,496.17360224728,497.28504803619,496.34158754104,497.56933807131,496.98657239879,497.83743150556,498.47030775493,497.51617871148,496.19632014301,496.43799649945,497.94627769545,497.52355605974,495.31371716184,495.83931201271,497.56933807131,497.25353064259,496.64315757366,497.1696554536,497.29354273592,498.22755578505,497.75249835194,495.49481768716,496.64328097892,497.36240000522,496.15989147798,498.00083893799,497.40228922978,497.86888067127,498.46144029298,497.80990429811,496.61754557572,497.7675803596,498.28164667064,497.08038849826,498.00083893799,497.85478817461,497.85478817461,495.71924171987,495.71924171987,1.4104556448582,0.00049968915636936,3.1331049383849e-06,0.040212083497427,0.0032401039849019,-3.6606600634913,-0.82813585469838,-4.6889459789627e-06,0.0039050383597126,-0.00014072144891061,-7.9988972284626e-05,0.00014286557468829,0.0045518127062307,13.368562371093,0.00326897585221,0.00054468662888865,0.0023671264530428,0.0023449924425083,-1.466023475593,-0.37177709504053,-9.9307503202894e-07,0.0017740494476839,-8.9535743619884e-05,-0.010267528571406,-4.1490086478709e-05,0.00054397351096118,0.0022900661234897,-4.6467323352995,-1.1842694667211,-5.1553994381055e-06,0.0036300043696302,-0.00032976359346078,0.0016354698754672,0.011624137828064,0.00017775614031331,6.8768891769131,0.0015038131900714,7.4073775340585e-05,0.038050629351566,11.034132754801,0.0040340271920582,-0.0079396382140325,9.1483596565776e-05,-0.21672420350207,-9.3433479414847e-05,1.1552934730934,0.00041862344118379,-0.053782213959298,620.92580570721,620.92580570721,622.06553932019,622.06553932019,621.39219364942,621.60607896433,622.89440758322,622.38497906949,620.04979115774,620.91118896997,622.02263475888,621.07917426374,622.30692479401,621.72415912148,622.57501822826,623.20789447762,622.25376543417,620.93390686571,621.17558322214,622.68386441814,622.26114278244,620.05130388453,620.5768987354,622.30692479401,621.99111736528,621.38074429636,621.90724217629,622.03112945861,622.96514250774,622.49008507463,620.23240440986,621.38086770161,622.09998672791,620.89747820067,622.73842566068,622.13987595247,622.60646739397,623.19902701568,622.5474910208,621.35513229841,622.50516708229,623.01923339333,621.81797522096,622.73842566068,622.59237489731,622.59237489731,620.45682844256,620.45682844256,25195.491589942,0.0036091661564102,849.31518644438,-0.019249440010547,840.49784136111,-0.017061393666863,0
3.6170654296875e-05,805232510.75594,802415975.82523,807506908.18905,0.062463104089687,0.64760436919854,-0.22576307227148,1457447343.3713,2.0652478583421e-06,1.0770061476792e-05,1.9570126847439e-06,1.0000630390588,496.18217153775,496.18217153775,497.32699957448,497.32699957448,496.6483445751,496.86591857791,498.15415006707,497.64546075433,495.30635637033,496.17184802449,497.28428067153,496.33897746132,497.56777967248,496.97876137449,497.83488183932,498.4665952642,497.5117176752,496.19065660401,496.43502062636,497.94457931897,497.52201900128,495.30840642323,495.83686453462,497.56777967248,497.25282234642,496.64150728933,497.16313048963,497.29113475708,498.22367085171,497.75019608522,495.48865533083,496.64191540859,497.36143616856,496.15606582874,497.99475673332,497.39472654245,497.86613345042,498.45674131187,497.80616367754,496.60999285454,497.76534273437,498.27888856467,497.0752247673,497.99475673332,497.85204934059,497.85204934059,495.71515262805,495.71515262805,1.4197519795558,0.00048821727564195,2.2453776863647e-06,0.048049611405328,0.0031353591571585,-3.6889495952108,-0.85555953524227,-5.0382316465697e-06,0.003876194007069,-0.00020704041601753,-0.00010233372025204,0.00014630353071184,0.0038426749984057,12.999392743269,0.0031881924777836,0.00055833824695887,0.0023612798489537,0.0022328366565715,-1.5036147550662,-0.38844793701055,-1.0543141523531e-06,0.0012001304662437,-0.00015004350629662,-0.007717595821038,-4.105842695072e-05,0.00081565423449916,0.0022341415817938,-4.6993116201064,-1.2251762964398,-7.0840591004482e-06,0.0036318859614633,-0.00039610792222278,0.0017665191249137,0.011663434695657,0.00016978333088683,6.9243919072605,0.0014719842712256,7.5851787275281e-05,0.038051435728053,11.112805817105,0.0038535958710921,-0.006800426304075,9.1614609629812e-05,-0.23362499835407,-9.6802130884423e-05,1.1605550413143,0.00038495652643943,-0.063439734330346,620.9202233733,620.9202233733,622.06505141004,622.06505141004,621.38639641065,621.60397041346,622.89220190262,622.38351258988,620.04440820588,620.90989986004,622.02233250708,621.07702929687,622.30583150803,621.71681321004,622.57293367487,623.20464709975,622.24976951075,620.92870843956,621.17307246191,622.68263115452,622.26007083684,620.04645825878,620.57491637017,622.30583150803,621.99087418197,621.37955912488,621.90118232518,622.02918659263,622.96172268726,622.48824792077,620.22670716638,621.37996724415,622.09948800411,620.8941176643,622.73280856887,622.132778378,622.60418528598,623.19479314742,622.54421551309,621.3480446901,622.50339456993,623.01694040022,621.81327660285,622.73280856887,622.59010117614,622.59010117614,620.45320446361,620.45320446361,85241.16257627,0.0036101113832955,849.44487258118,-0.019204917254385,840.67287973085,-0.016929916328386,0
3.6190185546875e-05,805215052.7343,802378750.88702,807491702.71873,0.062463104089687,0.64760436919854,-0.22576307227148,1459274320.9286,2.0666436968388e-06,1.0775879481766e-05,1.9586544515642e-06,1.0000634765205,496.16997863825,496.16997863825,497.3250336227,497.3250336227,496.63564588633,496.86055656786,498.14871592509,497.64146378427,495.29453796339,496.16819998481,497.28270762842,496.33369589376,497.56457186306,496.96300864313,497.82961515466,498.4590857935,497.50266688269,496.17914743435,496.42886039379,497.94110415095,497.51883993587,495.2976432011,495.8318116576,497.56457186306,497.25136860417,496.63815080016,497.14992048147,497.28610698309,498.21579411032,497.74543158072,495.47622301191,496.63906427121,497.35945776915,496.14834257257,497.98246504554,497.3794656614,497.86045457066,498.44724739712,497.79853235007,496.59476291552,497.76072515676,498.27329226375,497.06478565733,497.98246504554,497.8463831896,497.8463831896,495.70679462526,495.70679462526,1.4192018896534,0.00048664820503814,2.2879957361961e-06,0.046509011486455,0.0030641871275448,-3.6948679460584,-0.84678631831426,-5.0030843096494e-06,0.0038562283227074,-0.00020387471722072,-0.0001048469416857,0.0001448822086712,0.0038283495156711,12.898802009968,0.0031607405088324,0.00056312831765209,0.0023717276956625,0.0021683844692816,-1.5055763693834,-0.38107129883729,-1.0646877843938e-06,0.0011860257781841,-0.00014904764505243,-0.0068248798383987,-4.2123907726552e-05,0.00079019810884657,0.0022066918489524,-4.6678419142535,-1.2172508919038,-6.7282038327048e-06,0.0036163545234239,-0.00039397818748608,0.001745046041958,0.011638867533273,0.00017130828169705,6.9401358840858,0.0014589052339965,7.652799379104e-05,0.03823880272771,11.118599243086,0.0038223664541215,-0.0060247992480659,9.2164334912842e-05,-0.23009973752701,-9.5618009638463e-05,1.1678138832155,0.00037915775768977,-0.063096874966421,620.90896888422,620.90896888422,622.06402386867,622.06402386867,621.3746361323,621.59954681382,622.88770617105,622.38045403024,620.03352820936,620.90719023078,622.02169787438,621.07268613973,622.30356210902,621.7019988891,622.56860540062,623.19807603947,622.24165712866,620.91813768032,621.16785063976,622.68009439691,622.25783018184,620.03663344707,620.57080190357,622.30356210902,621.99035885013,621.37714104613,621.88891072744,622.02509722905,622.95478435629,622.48442182669,620.21521325788,621.37805451718,622.09844801512,620.88733281854,622.72145529151,622.11845590737,622.59944481663,623.18623764309,622.53752259603,621.33375316148,622.49971540273,623.01228250972,621.8037759033,622.72145529151,622.58537343557,622.58537343557,620.44578487123,620.44578487123,21464.757245915,0.0036120572030908,849.80603049233,-0.019234817848811,841.02941293191,-0.016957984581847,0
3.6229248046875e-05,805180065.25071,802304132.64304,807461250.42322,0.062463104089687,0.64760436919854,-0.22576307227148,1462487274.1197,2.0703344462568e-06,1.078752921768e-05,1.9718098284282e-06,1.0000643535566,496.14555078677,496.14555078677,497.32111084706,497.32111084706,496.61020410671,496.84979083631,498.13784956422,497.63345072328,495.27085714799,496.16087488615,497.27957354971,496.32311869892,497.55814302814,496.9314569752,497.81904155086,498.4440538827,497.48452180371,496.15608193341,496.41649666946,497.93416223929,497.51247424008,495.27607174734,495.82167002429,497.55814302814,497.24847601002,496.63143455462,497.12346110324,497.27601010918,498.20003274291,497.73587255962,495.45131553722,496.63333975894,497.35550518586,496.1328705445,497.95785379874,497.34890099617,497.84905207586,498.42824241041,497.78322600389,496.56425410533,497.75145773259,498.26208879762,497.04386447823,497.95785379874,497.83500782291,497.83500782291,495.69003345759,495.69003345759,1.4151651497521,0.00048793293355807,2.3368323988643e-06,0.044405189958218,0.0028337828758241,-3.7257373485354,-0.84971155285237,-4.7874279433267e-06,0.0038545804628507,-0.00020155051533544,-0.00010837070197291,0.00014279865405007,0.0038387236998272,12.883344580559,0.0031156700575807,0.00057491892953127,0.0024042607194582,0.0020338838724394,-1.5179939790976,-0.3762099792542,-1.0838539723207e-06,0.0011742775457265,-0.00014776101336965,-0.0056028313019629,-4.3672304348638e-05,0.00074645124608671,0.0020353709911323,-4.6771877795342,-1.2307219638354,-3.7048382317284e-06,0.0036212024010988,-0.00039542586528418,0.0017325843392665,0.011562791587967,0.00016123999001691,6.9668610691707,0.0014089762266113,7.8185670797595e-05,0.038766531540952,11.12360539925,0.0037924885647931,-0.0049664412811822,9.3807283736775e-05,-0.24072815440548,-6.5058900610701e-05,1.1860547435285,0.00038155244457012,-0.062956215572769,620.88640399725,620.88640399725,622.06196405754,622.06196405754,621.35105731719,621.59064404679,622.8787027747,622.37430393376,620.01171035847,620.90172809664,622.02042676019,621.0639719094,622.29899623862,621.67231018568,622.55989476134,623.18490709318,622.22537501419,620.89693514389,621.15734987994,622.67501544977,622.25332745056,620.01692495782,620.56252323477,622.29899623862,621.9893292205,621.3722877651,621.86431431372,622.01686331966,622.94088595339,622.4767257701,620.1921687477,621.37419296942,622.09635839634,620.87372375498,622.69870700923,622.08975420665,622.58990528634,623.1690956209,622.52407921438,621.30510731581,622.49231094307,623.0029420081,621.78471768871,622.69870700923,622.57586103339,622.57586103339,620.43088666807,620.43088666807,7060.5754672713,0.0036159490665677,850.4938172179,-0.019225494236454,841.72326953883,-0.017016237897291,0
3.6307373046875e-05,805109801.1187,802154106.26313,807399751.64518,0.062463104089687,0.64760436919854,-0.22576307227148,1466489242.6558,2.0756833298497e-06,1.0810801442378e-05,1.9758407264433e-06,1.0000661272594,496.09654962623,496.09654962623,497.31321374081,497.31321374081,496.55905873884,496.82799964861,498.11598797217,497.61727097444,495.22331497283,496.14605763325,497.27327057405,496.30189965174,497.54516582602,496.86814395204,497.79767616464,498.4138475515,497.44805425148,496.10968720846,496.39150939107,497.92018434113,497.49963021219,495.23272517584,495.80119184096,497.54516582602,497.24266360307,496.61795367182,497.07029287592,497.2555616043,498.16834572258,497.71656299761,495.40133971923,496.62174767047,497.34754084355,496.10183596146,497.90842062064,497.2875509184,497.82601048029,498.39006745266,497.75241436382,496.50304373292,497.73273485604,498.23955566302,497.0018627344,497.90842062064,497.81202212454,497.81202212454,495.65627045984,495.65627045984,1.4290610119609,0.00048622017769473,2.4950940253825e-06,0.039946800292002,0.0027495870055623,-3.7884291456975,-0.82305626112008,-1.8473165321406e-06,0.0038414339291498,-0.00020138655763688,-0.00011687390598586,0.00013696322216889,0.003821911409973,13.01842422271,0.0030296230201089,0.00059398482033679,0.0024466482288762,0.0019407379607664,-1.5400205633771,-0.35306463597526,-9.3449667643368e-07,0.0011578187816351,-0.00014873105717019,-0.004162299576943,-4.7234490390434e-05,0.00067563658297817,0.0020313289246698,-4.741260527843,-1.2131580235799,1.4998777390074e-05,0.0036100566079649,-0.00040156497426041,0.0016967691309407,0.011614090439449,0.00016977700371292,7.0684246225032,0.0013158856809312,8.1000260179333e-05,0.039585179583889,11.255944283803,0.0037268151160137,-0.0037398574679138,9.5952180891352e-05,-0.24207101708097,2.004841451282e-05,1.2191038759005,0.00037823871147167,-0.062588343947232,620.84112047174,620.84112047174,622.05778458632,622.05778458632,621.30362958435,621.57257049412,622.86055881768,622.36184181995,619.96788581834,620.89062847876,622.01784141956,621.04647049725,622.28973667153,621.61271479755,622.54224701015,623.15841839701,622.19262509699,620.85425805396,621.13608023658,622.66475518664,622.2442010577,619.97729602135,620.54576268646,622.28973667153,621.98723444858,621.36252451733,621.81486372143,622.00013244981,622.91291656809,622.46113384312,620.14591056473,621.36631851598,622.09211168906,620.84640680697,622.65299146614,622.03212176391,622.5705813258,623.13463829817,622.49698520933,621.24761457843,622.47730570154,622.98412650853,621.7464335799,622.65299146614,622.55659297004,622.55659297004,620.40084130535,620.40084130535,3214.584739635,0.003623730783506,851.91210358096,-0.019322836901365,843.14223533728,-0.017084254865161,0
3.6463623046875e-05,804963817.36417,801842694.7027,807273357.49637,0.062463104089687,0.64760436919854,-0.22576307227148,1471049137.1509,2.0867324427316e-06,1.0857345155473e-05,1.9869818178941e-06,1.0000698097508,495.99387394744,495.99387394744,497.29705964546,497.29705964546,496.45264249556,496.78331142101,498.07087302302,497.5839886682,495.1239270323,496.11560530594,497.26040343813,496.2576493098,497.51848749297,496.73558820624,497.75365702828,498.35117692972,497.3720757771,496.01326808709,496.34010558648,497.89148216678,497.47324708679,495.14235295644,495.7589596801,497.51848749297,497.23081511204,496.5899720047,496.95959092377,497.2136569032,498.10270506697,497.6768073549,495.29667409027,496.59799120412,497.33122868533,496.03695416977,497.80550185125,497.1593144595,497.77853063265,498.31072467373,497.68844872588,496.37476138958,497.69417584712,498.19292221998,496.91410583723,497.80550185125,497.76466360259,497.76466360259,495.58631787869,495.58631787869,1.4818727232811,0.00047641346231268,2.7415249414422e-06,0.036356571211649,0.0043154960819542,-3.9646097055641,-0.81064183955219,-1.5600144146723e-06,0.0037534245115435,-0.00021299161500887,-0.00012590238472289,0.00013714050740761,0.0037699442371019,13.497752263639,0.0030237578895586,0.0006348638195848,0.0027237089225916,0.0024158647025276,-1.6040192664362,-0.33780051053396,-1.0171416052517e-06,0.0013203612259575,-0.00016371697645152,-0.0027675962465129,-5.1565621169582e-05,0.0006119960724924,0.0036210875161646,-4.9637966972104,-1.214464791438,1.8458177891183e-05,0.003508491932975,-0.00042216358371243,0.0016306148789378,0.011961385932052,0.00028906970884781,7.3306881828049,0.0012979259950385,8.6849070797834e-05,0.04333298330508,11.718345440035,0.0037449460765717,-0.0025419607657087,0.00010814126179757,-0.23019491806596,3.4575228607518e-05,1.3073016574271,0.000371819899994,-0.062047625947214,620.74632027251,620.74632027251,622.04950597054,622.04950597054,621.20508882064,621.53575774608,622.82331934809,622.33643499328,619.87637335738,620.86805163102,622.0128497632,621.01009563488,622.27093381804,621.48803453132,622.50610335335,623.10362325479,622.12452210218,620.76571441216,621.09255191156,622.64392849185,622.22569341187,619.89479928151,620.51140600517,622.27093381804,621.98326143712,621.34241832978,621.71203724884,621.96610322828,622.85515139204,622.42925367998,620.04912041535,621.3504375292,622.0836750104,620.78940049484,622.55794817633,621.91176078457,622.53097695772,623.06317099881,622.44089505096,621.12720771465,622.44662217219,622.94536854505,621.66655216231,622.55794817633,622.51710992767,622.51710992767,620.33876420376,620.33876420376,2275.1374167861,0.0036392971693433,854.74844220254,-0.019520321100076,845.95032896861,-0.017260300507124,0
3.6619873046875e-05,804809146.46012,801511998.18685,807140565.37697,0.062463104089687,0.64760436919854,-0.22576307227148,1473490793.61,2.0976073182955e-06,1.0903887201515e-05,1.9990271388143e-06,1.000073710114,495.88222462929,495.88222462929,497.28019879431,497.28019879431,496.33856761735,496.73608361815,498.02306947046,497.54881642787,495.01644746958,496.08337452341,497.24708833219,496.21035716842,497.49044203391,496.59027019954,497.70704660402,498.28468052142,497.29069810905,495.9101737351,496.28569597584,497.86129928026,497.4454523852,495.04524597991,495.71415849432,497.49044203391,497.21856933539,496.56027314888,496.84072251556,497.16937108928,498.03278400899,497.63471341516,495.18287911048,496.57293081534,497.31424647942,495.96721649044,497.69510553312,497.01985820923,497.72820799166,498.2261505993,497.62024656529,496.23380382015,497.65341525211,498.14365726373,496.81958958455,497.69510553312,497.71445084216,497.71445084216,495.51185443637,495.51185443637,1.5399346146192,0.0004844940619103,3.0495796118999e-06,0.034628598904984,0.011919704261238,-4.1950014431497,-0.81424811430817,-2.244969505065e-06,0.0037702436155568,-0.00022356303241915,-0.00014308797897289,0.00013933458378404,0.0036620363432131,14.328385347246,0.0031266912348335,0.00067588322079517,0.0028176910438049,0.0026957017483041,-1.6941302510545,-0.33374569470713,-1.299447977036e-06,0.001275808107962,-0.0001732474530344,-0.0019228807258492,-5.8680079933717e-05,0.00057427748293064,0.019995099199883,-5.2501680006522,-1.2978393543338,1.9258103997687e-05,0.0035458429583169,-0.00044483297264963,0.0015353952808531,0.012425299635055,0.0017080652702396,7.6668487286116,0.0013394267186933,9.4385815388877e-05,0.04519331119431,12.596036741247,0.0038843456746481,-0.0018337717008758,0.00011325665158132,-0.22262536488368,3.7366481719203e-05,1.3867686831325,0.00035356652272335,-0.064332773538805,620.64413334077,620.64413334077,622.04210750578,622.04210750578,621.10047632882,621.49799232962,622.78497818194,622.31072513934,619.77835618105,620.84528323488,622.00899704366,620.9722658799,622.25235074538,621.35217891102,622.46895531549,623.04658923289,622.05260682052,620.67208244657,621.04760468731,622.62320799173,622.20736109668,619.80715469138,620.4760672058,622.25235074538,621.98047804686,621.32218186035,621.60263122703,621.93127980075,622.79469272046,622.39662212663,619.94478782196,621.33483952681,622.07615519089,620.72912520191,622.45701424459,621.7817669207,622.49011670314,622.98805931077,622.38215527676,620.99571253162,622.41532396358,622.9055659752,621.58149829602,622.45701424459,622.47635955363,622.47635955363,620.27376314784,620.27376314784,4711.679120572,0.0036548631660222,857.5395709018,-0.019742129135214,848.7046503732,-0.017467460770761,0
3.6776123046875e-05,804652504.07645,801174905.78623,807003953.55534,0.062463104089687,0.64760436919854,-0.22576307227148,1475111468.7309,2.1085242122999e-06,1.0950429082419e-05,2.0110784819419e-06,1.0000777971844,495.77050687678,495.77050687678,497.26331827485,497.26331827485,496.22285357049,496.68612418795,497.97516581901,497.51238202696,494.90814837104,496.04940452668,497.2339431738,496.16298846727,497.46151710621,496.43944653854,497.65838050708,498.21790064956,497.20837921302,495.80515565984,496.22862034958,497.83107601811,497.4168905584,494.94684152119,495.66735879525,497.46151710621,497.20659766324,496.53050450886,496.72058767142,497.12242329663,497.96257273259,497.59090135978,495.06857975428,496.54644505327,497.29715056979,495.89745853977,497.58421507732,496.87865492788,497.6756108504,498.14137480804,497.55055785709,496.08654367646,497.61095746854,498.09393944232,496.72466198935,497.58421507732,497.66199099853,497.66199099853,495.43521438329,495.43521438329,1.6080447384898,0.00048863633098739,3.3801659747872e-06,0.033052610567963,0.0033919212665128,-4.4485096776472,-0.81980223022676,-2.5578636171974e-06,0.0037489029143075,-0.00023612290422438,-0.00016168987085704,0.00014344052069929,0.0035727472784807,14.953794900119,0.00327621599234,0.00071767355754364,0.0029287649336698,0.0011421852472351,-1.7925384391083,-0.33109834115987,-1.5291645143274e-06,0.0012130139866542,-0.00018421594238714,-0.0013490407504443,-6.6351855522948e-05,0.00054130491495849,0.0095239464334568,-5.5690664918264,-1.2692970738356,2.1179888549163e-05,0.0035486481572372,-0.00046954611223002,0.0014646968265038,0.012978759430497,0.0013029765496495,8.0023502564282,0.0014047852019468,0.00010033381934741,0.047356194038129,13.294411501037,0.004072078116926,-0.0013621884345571,0.00011884598304832,-0.21940675005745,4.0252965567155e-05,1.4741227877001,0.00036975859678016,-0.066889352125979,620.54441556261,620.54441556261,622.03722696068,622.03722696068,620.99676225632,621.46003287377,622.74907450483,622.28629071278,619.68205705686,620.82331321251,622.00785185962,620.93689715309,622.23542579203,621.21335522437,622.4322891929,622.99180933538,621.98228789884,620.57906434566,621.00252903541,622.60498470394,622.19079924423,619.72075020702,620.44126748108,622.23542579203,621.98050634906,621.30441319468,621.49449635725,621.89633198245,622.73648141841,622.3648100456,619.8424884401,621.32035373909,622.07105925561,620.6713672256,622.35812376315,621.65256361371,622.44951953623,622.91528349387,622.32446654291,620.86045236228,622.38486615437,622.86784812814,621.49857067517,622.35812376315,622.43589968436,622.43589968436,620.20912306911,620.20912306911,15582.293486082,0.0036704289037873,860.28748512844,-0.019963173901203,851.41353948265,-0.017672845088866,0
3.6854248046875e-05,804571937.12707,801001417.46767,806932584.06999,0.062463104089687,0.64760436919854,-0.22576307227148,1475716681.5522,2.113931349107e-06,1.0973699772913e-05,2.0171205670461e-06,1.000079878059,495.71434376041,495.71434376041,497.25464794636,497.25464794636,496.16412925465,496.6597845783,497.95078044636,497.49330693712,494.85349186034,496.03149791435,497.227244517,496.13871184738,497.44640482432,496.36716566018,497.63277813714,498.1838055175,497.16601332562,495.75155933868,496.1987372353,497.81565324091,497.40200466934,494.8967681053,495.64288684824,497.44640482432,497.20053189886,496.51519906565,496.65985528001,497.09758297235,497.9269429468,497.56790092881,495.01128624738,496.5324191782,497.28834017271,495.8618709486,497.52815454119,496.80875288029,497.64792551422,498.09827660091,497.51439357091,496.01654016187,497.58865032624,498.06841030938,496.67621665277,497.52815454119,497.63438813071,497.63438813071,495.39565892644,495.39565892644,1.6535642737577,0.00049642443972414,3.5567861471615e-06,0.032898701965441,0.0029222654181058,-4.6031542828613,-0.83417873082272,-2.3275088151934e-06,0.0038031323479852,-0.00024446110112317,-0.00017175823026835,0.00014538377354789,0.0035189245254037,15.191683776893,0.0033424467814683,0.00074114310535068,0.0030029315504175,0.001127082843381,-1.8533908639535,-0.33493858639818,-1.5749926841719e-06,0.0012081260783273,-0.00019162586129855,-0.0010764584145408,-7.0509664183098e-05,0.00053188620607555,0.00788511677765,-5.7617030553892,-1.281869465274,2.3288682541794e-05,0.0036081127294625,-0.00048471738687983,0.0014179206861897,0.013284518054666,0.0011603814704324,8.2500167973548,0.0014284166719529,0.00010345299204745,0.048739552422645,13.247104311432,0.0041575815105534,-0.0011414238662519,0.00012227183817722,-0.22198677335835,4.690080223023e-05,1.5261382150252,0.0003798994110734,-0.068661773193997,620.49269362344,620.49269362344,622.03299780939,622.03299780939,620.94247911768,621.43813444133,622.72913030939,622.27165680015,619.63184172337,620.80984777738,622.00559438003,620.91706171041,622.22475468735,621.14551552321,622.41112800017,622.96215538053,621.94436318865,620.52990920171,620.97708709833,622.59400310394,622.18035453237,619.67511796833,620.42123671127,622.22475468735,621.97888176189,621.29354892868,621.43820514304,621.87593283538,622.70529280983,622.34625079184,619.78963611041,621.31076904123,622.06669003574,620.64022081163,622.30650440422,621.58710274332,622.42627537725,622.87662646395,622.29274343394,620.7948900249,622.36700018927,622.84676017241,621.4545665158,622.30650440422,622.41273799374,622.41273799374,620.17400878947,620.17400878947,13146.404247028,0.0036782116611904,861.650207081,-0.020066903431687,852.758822827,-0.017770932694138,0
3.7010498046875e-05,804405902.85828,800643608.49648,806785417.25791,0.062463104089687,0.64760436919854,-0.22576307227148,1476779275.3143,2.1237356264213e-06,1.102024117115e-05,2.0295902212864e-06,1.0000841999944,495.59851686228,495.59851686228,497.23685172151,497.23685172151,496.04304299421,496.60525712207,497.90064840453,497.45391101443,494.74075481205,495.99442708486,497.21353535819,496.08867529707,497.41522488473,496.21816333706,497.57982293143,498.11362643486,497.07858257054,495.64099663996,496.13692647682,497.78398168647,497.37130608565,494.79345828189,495.59226845485,497.41522488473,497.18813910419,496.48367939175,496.53467774653,497.04614118904,497.8536334961,497.52035490353,494.89312343143,496.50338283989,497.27024425377,495.78849534645,497.41268071381,496.66464939716,497.59064806437,498.00955215771,497.43970995055,495.87221111074,497.54253450355,498.01585386267,496.57628092141,497.41268071381,497.57728509327,497.57728509327,495.31397222078,495.31397222078,1.7153139304801,0.00048762898373028,3.9759070938063e-06,0.031011853724864,0.0026320763794174,-4.8703067067581,-0.8373017091287,-1.7951916041397e-06,0.003660208632574,-0.000258499106127,-0.00019243535704604,0.00014859720212201,0.0034876679501989,15.708239860004,0.0034603954550054,0.00078263064312006,0.0031251303327602,0.0011267803016068,-1.9556010417185,-0.32911613856987,-1.6242840065398e-06,0.0010906037486678,-0.00020399294428197,-0.00071020909024069,-7.9094070830461e-05,0.00049945574485755,0.0068529347677909,-6.1025832158124,-1.2971466700056,2.7586558245373e-05,0.0034978588612586,-0.00050997861408781,0.0013820558693376,0.013778300381228,0.0010668678148092,8.5462449340632,0.001468149897636,0.00010922118957843,0.051100632831943,13.654387211696,0.0043112530588391,-0.00084679767258908,0.00012830375058688,-0.23450327989609,6.1587042101767e-05,1.6193785439553,0.0004019869714975,-0.071236826608394,620.38592598292,620.38592598292,622.02426084216,622.02426084216,620.83045211485,621.39266624272,622.68805752518,622.24132013507,619.5281639327,620.7818362055,622.00094447883,620.87608441771,622.20263400537,621.00557245771,622.36723205207,622.9010355555,621.86599169119,620.4284057606,620.92433559747,622.57139080712,622.15871520629,619.58086740253,620.37967757549,622.20263400537,621.97554822483,621.27108851239,621.32208686717,621.83355030969,622.64104261674,622.30776402418,619.68053255207,621.29079196054,622.05765337441,620.5759044671,622.20008983445,621.4520585178,622.37805718501,622.79696127835,622.22711907119,620.65962023138,622.3299436242,622.80326298332,621.36369004205,622.20008983445,622.36469421391,622.36469421391,620.10138134142,620.10138134142,2719.5137629337,0.0036937843412147,864.3334828342,-0.020224028259533,855.40987755759,-0.017927732624476,0
3.7322998046875e-05,804060712.04331,799896881.39845,806471422.15613,0.062463104089687,0.64760436919854,-0.22576307227148,1478548856.8312,2.1452383888998e-06,1.1113322374015e-05,2.0550179045084e-06,1.0000935684995,495.35777356318,495.35777356318,497.19883308736,497.19883308736,495.78936465494,496.48941598067,497.79442348598,497.37043125761,494.5059427681,495.91589637155,497.18416341859,495.98459255296,497.3491433051,495.90752961031,497.46791149632,497.96623883426,496.89613895142,495.40930066007,496.00610481938,497.71643258737,497.30612676775,494.57782733177,495.48549025582,497.3491433051,497.16151613462,496.4178031299,496.27241158008,496.93673853914,497.69906401029,497.41973349598,494.64734283395,496.44164414076,497.23166263505,495.63606321108,497.17061857949,496.36373402393,497.46962327225,497.82340327424,497.28328823186,495.57171898688,497.44502632753,497.90525824105,496.36823399281,497.17061857949,497.4565863889,497.4565863889,495.14247055378,495.14247055378,1.8454547718744,0.00048016376438227,4.787918934304e-06,0.028604997269965,0.0024973664979618,-5.4643982014869,-0.85850694432275,-8.6984711172119e-07,0.0034620222618926,-0.00028995325911981,-0.00023760194493113,0.00015735076354703,0.0033979577404697,16.844326650303,0.0037057460611064,0.00086318433433569,0.0033780308073112,0.0011669241915664,-2.1847741207385,-0.32573483029429,-1.7510424427102e-06,0.00090083719982007,-0.0002317899523397,-0.00014832435213694,-9.7769634966701e-05,0.00045648494368568,0.0063420947313537,-6.8528218701904,-1.3633375566081,3.5783788828309e-05,0.0033555037089745,-0.00056171711183846,0.0013056206270208,0.014857985373405,0.0010343683402042,9.164180736988,0.0015519367622522,0.00012055463361655,0.056101438814126,14.646371404375,0.0046282243566646,-0.00040517483617913,0.00014073174938188,-0.25694360222711,9.1478851675247e-05,1.820421322953,0.00044745753161865,-0.077360204452618,620.16437715951,620.16437715951,622.00543668369,622.00543668369,620.59596825127,621.296019577,622.60102708231,622.17703485393,619.31254636443,620.72249996788,621.99076701492,620.79119614929,622.15574690143,620.71413320663,622.27451509265,622.77284243059,621.70274254774,620.2159042564,620.8127084157,622.5230361837,622.11273036408,619.38443092809,620.29209385215,622.15574690143,621.96811973095,621.22440672623,621.07901517641,621.74334213547,622.50566760662,622.2263370923,619.45394643027,621.24824773709,622.03826623138,620.44266680741,621.97722217582,621.17033762026,622.27622686858,622.63000687056,622.08989182818,620.37832258321,622.25162992386,622.71186183737,621.17483758914,621.97722217582,622.26318998523,622.26318998523,619.9490741501,619.9490741501,1253.3941745944,0.0037249142018287,869.52706312199,-0.020614751375505,860.53699227131,-0.018300754124538,0
3.7947998046875e-05,803261735.59281,798143466.43762,805685174.37157,0.062463104089687,0.64760436919854,-0.22576307227148,1481321601.59,2.1931028060566e-06,1.1299496869941e-05,2.105708671139e-06,1.0001158164024,494.79315642139,494.79315642139,497.10040172137,497.10040172137,495.18214614274,496.1934430901,497.5304118006,497.16210555179,493.95239329807,495.71806330319,497.10785766457,495.74008998634,497.18572048832,495.17086470567,497.19152078882,497.61343291019,496.4655274413,494.85383772757,495.67739961795,497.54462988873,497.14217099105,494.06665624404,495.22077549243,497.18572048832,497.09111414269,496.2598919474,495.64418381842,496.65649608592,497.31873405721,497.16956811794,494.06952099212,496.28475080783,497.13393515082,495.27996318605,496.58707346372,495.64806872756,497.17010131209,497.3773810688,496.90966678296,494.8614691999,497.20461963106,497.63944315298,495.8798581947,496.58707346372,497.1571623059,497.1571623059,494.72694063944,494.72694063944,2.120691680396,0.0011274467891818,6.562426539883e-06,0.027802127378804,0.0040556050640515,-7.026282944671,-0.98862882804278,3.2425271500688e-06,0.0044855979479255,-0.00041755867618133,-0.00035538972926138,0.00017724730577707,0.0031751755194218,19.3761075761,0.0042652113738637,0.0010127975339982,0.0039794943560772,0.0015374881065452,-2.7940589341219,-0.36842478996407,-3.5534272826273e-06,0.00093832410644255,-0.00042633030494228,0.00069296596234107,-0.00014674584309777,0.00040856678431432,0.0092896424156873,-8.7509644270803,-1.6808732831717,5.9231019934937e-05,0.0050938396576343,-0.00067340276210285,0.0011282485624154,0.017089583077303,0.0014998086834236,10.483423819691,0.001776515714142,0.00014360403280556,0.068492170157345,16.908452230421,0.0053034491195664,0.00024068059439736,0.00018883487202966,-0.40731423103082,0.00013871793157659,2.3188996320534,0.00051444512026546,-0.093039794217955,619.65368760042,619.65368760042,621.9609329004,621.9609329004,620.04267732177,621.05397426913,622.39094297964,622.02263673082,618.8129244771,620.57859448222,621.9683888436,620.60062116537,622.04625166735,620.0313958847,622.05205196785,622.47396408922,621.32605862033,619.71436890661,620.53793079698,622.40516106776,622.00270217008,618.92718742307,620.08130667146,622.04625166735,621.95164532172,621.12042312643,620.50471499745,621.51702726495,622.17926523624,622.03009929697,618.93005217115,621.14528198686,621.99446632985,620.14049436508,621.44760464275,620.50859990659,622.03063249112,622.23791224783,621.77019796199,619.72200037893,622.06515081009,622.49997433201,620.74038937373,621.44760464275,622.01769348493,622.01769348493,619.58747181847,619.58747181847,2503.2150523065,0.003787170841181,879.06188613323,-0.02145920217669,869.93264581625,-0.019117038810938,0
3.8104248046875e-05,803051246.95084,797674400.38434,805476796.4095,0.062463104089687,0.64760436919854,-0.22576307227148,1481882444.7807,2.2053060485197e-06,1.1346041359981e-05,2.1186021780887e-06,1.0001218245387,494.64527063878,494.64527063878,497.07680527546,497.07680527546,495.02426100715,496.11083941247,497.46651904925,497.10530388787,493.80685276481,495.66256450032,497.09086000035,495.67561747809,497.14225849408,494.98100404518,497.11451902515,497.52481021106,496.34973954629,494.70754195679,495.58676713889,497.50384644938,497.09870915629,493.93124803628,495.14744981743,497.14225849408,497.07599303824,496.21882787598,495.48287728906,496.57764220622,497.22568295097,497.10029036392,493.91829800887,496.24074994092,497.11035023403,495.18596174836,496.44057849456,495.46475670635,497.08629371375,497.26571008692,496.80765474987,494.67736088637,497.13823150042,497.57201248078,495.75020935847,496.44057849456,497.07334731194,497.07334731194,494.61485426832,494.61485426832,2.2751839265844,0.0013147454654497,7.1356257171337e-06,0.028703053837149,0.0039125889834811,-7.5712772641417,-1.0398286108974,3.7101064157303e-06,0.0049115159845094,-0.00045382910125404,-0.00039575176086311,0.00018549666029206,0.0029913064743044,21.083985284641,0.0044465157875408,0.0010742039825455,0.0042520653258706,0.001514428948451,-2.9970644265348,-0.38396849159172,-4.2351965794431e-06,0.0009980100101521,-0.00047195074766313,0.0011138288453786,-0.00016323596610201,0.00041697293800757,0.0092021210003596,-9.4608721068214,-1.6921440686097,6.4588895273255e-05,0.0056896860352671,-0.00072420642712296,0.0010000920782096,0.01803384286115,0.0015265494015326,11.378632772751,0.0018423388363258,0.00015164220135284,0.073473336692645,18.364562245528,0.0055329687789664,0.00055058855083698,0.00020664364231171,-0.33127401348596,0.00015537947386142,2.50509685088,0.00053632131602916,-0.099284537879112,619.51917331161,619.51917331161,621.95070794829,621.95070794829,619.89816367998,620.9847420853,622.34042172208,621.9792065607,618.68075543764,620.53646717315,621.96476267318,620.54952015092,622.01616116691,619.85490671801,621.98842169798,622.39871288389,621.22364221912,619.58144462963,620.46066981172,622.37774912221,621.97261182912,618.80515070911,620.02135249026,622.01616116691,621.94989571108,621.09273054881,620.35677996189,621.45154487905,622.0995856238,621.97419303675,618.7922006817,621.11465261375,621.98425290687,620.05986442119,621.31448116739,620.33865937918,621.96019638658,622.13961275975,621.6815574227,619.5512635592,622.01213417325,622.44591515361,620.6241120313,621.31448116739,621.94724998478,621.94724998478,619.48875694115,619.48875694115,5927.3662579579,0.003802734378479,881.33509820211,-0.021669320496893,872.17126987447,-0.019320553074705,0
3.8416748046875e-05,802577552.88714,796620401.79963,805003752.69799,0.062463104089687,0.64760436919854,-0.22576307227148,1482939363.3728,2.2305728362128e-06,1.1439134629398e-05,2.14544824703e-06,1.0001347785497,494.30710585069,494.30710585069,497.02067593139,497.02067593139,494.66257752664,495.92387419385,497.3151772644,496.97705633345,493.47534158997,495.53865923771,497.0492702788,495.53004943794,497.04361449536,494.53932251727,496.9419430352,497.31956483049,496.08885705947,494.37465037666,495.38247716185,497.40612468243,496.99957413145,493.62428547853,494.98337525267,497.04361449536,497.03827894717,496.1255225171,495.11091279675,496.39835132985,497.00742677296,496.94454632479,493.57243117579,496.14239340777,497.05469971808,494.97338568809,496.10020672019,495.03869086407,496.89827044751,497.00629848576,496.57872199247,494.25036352667,496.98929423986,497.41661644558,495.45645736497,496.10020672019,496.88500894827,496.88500894827,494.36230526692,494.36230526692,2.3975908318772,0.0044011041800145,7.8726309738884e-06,0.026847069044591,0.004198745374171,-8.4362864643682,-1.1077174576022,3.2281190520625e-06,0.0071871285690566,-0.00052252094165284,-0.00047258560298198,0.00019817668527722,0.0028747393637215,22.341272658132,0.0047356492354844,0.0011481602481956,0.0045868979322541,0.0014325412036831,-3.319084660996,-0.39546337218098,-7.8711363694837e-06,0.0010231192496677,-0.00060176237711844,0.0014650791091681,-0.00019515799435763,0.0003933749102922,0.010742626640266,-10.714257255394,-1.8523666089353,7.3035189465419e-05,0.012460130973604,-0.0007815411005461,0.00090772252827267,0.019206369402128,0.0018571804088676,12.013146378104,0.0019558670172058,0.00016447218346695,0.080494480041109,19.521556492554,0.0058964271019938,0.00080746084694032,0.00029338213947149,-0.37882078507613,0.00017759306575256,2.7953213118995,0.00055961885819081,-0.10769924031062,619.21642986947,619.21642986947,621.92999995017,621.92999995017,619.57190154542,620.83319821263,622.22450128318,621.88638035223,618.38466560875,620.4479832565,621.95859429758,620.43937345673,621.95293851414,619.44864653605,621.85126705398,622.22888884927,620.99818107825,619.28397439544,620.29180118063,622.31544870122,621.90889815024,618.53360949731,619.89269927145,621.95293851414,621.94760296595,621.03484653588,620.02023681554,621.30767534863,621.91675079174,621.85387034357,618.48175519457,621.05171742655,621.96402373686,619.88270970687,621.00953073898,619.94801488285,621.80759446629,621.91562250454,621.48804601125,619.15968754545,621.89861825864,622.32594046436,620.36578138375,621.00953073898,621.79433296705,621.79433296705,619.2716292857,619.2716292857,6278.8964158964,0.0038338606004418,885.65775134516,-0.022105785970694,876.42170944025,-0.019741739215418,0
3.8494873046875e-05,802457780.87015,796350788.5007,804881398.11371,0.062463104089687,0.64760436919854,-0.22576307227148,1483187378.5146,2.2368487948803e-06,1.1462407934756e-05,2.1521763171818e-06,1.0001381482181,494.22297492115,494.22297492115,497.00708441315,497.00708441315,494.57203473227,495.87466892318,497.27873742698,496.94357835346,493.39221430462,495.50565934447,497.03966806648,495.49325542519,497.01819645461,494.43126512057,496.89647049372,497.26918936695,496.02219889867,494.29040739942,495.32891501627,497.38279923803,496.97407661004,493.54656271296,494.94013877035,497.01819645461,497.02978707695,496.10200930797,495.01871576752,496.35120015216,496.9544330483,496.90361336647,493.4863225955,496.11613767925,497.04116400531,494.91983926234,496.01684857256,494.93437358696,496.84870976977,496.94289316317,496.51946570674,494.14559488324,496.9501713208,497.37809636549,495.38230056123,496.01684857256,496.83539950688,496.83539950688,494.29712693126,494.29712693126,2.4920960151851,0.0048204008387452,8.0969327572887e-06,0.027525334211508,0.0040447362078686,-8.7724842178981,-1.1324811576308,2.9670590752224e-06,0.0072713939554293,-0.00054938553526637,-0.0004976261720812,0.00020306199025339,0.0027816051965495,23.362037822309,0.0048349838992675,0.0011819819736017,0.0047505312724883,0.0014086682991278,-3.4526397505114,-0.40500183262924,-8.9914058217949e-06,0.0010008026220765,-0.00064864667726049,0.0016880300311513,-0.0002053277899586,0.00039898172437282,0.010648975516632,-11.055182849677,-1.8789075340669,7.546628441605e-05,0.012884303110587,-0.00081165110611219,0.00084551009450226,0.019755736692937,0.0018871757922603,12.549159022402,0.0019921098730471,0.00016908447175225,0.083516719136532,20.347652450763,0.0060222210937135,0.00096637092376186,0.00031423927901354,-0.3745713579751,0.00018594433831693,2.9057207737989,0.00056640378666534,-0.11158810951567,619.14045680193,619.14045680193,621.92456629393,621.92456629393,619.48951661304,620.79215080395,622.19621930775,621.86106023424,618.30969618539,620.42314122524,621.95714994725,620.41073730597,621.93567833539,619.34874700134,621.8139523745,622.18667124772,620.93968077944,619.20788928019,620.24639689705,622.30028111881,621.89155849081,618.46404459373,619.85762065112,621.93567833539,621.94726895772,621.01949118874,619.93619764829,621.26868203293,621.87191492908,621.82109524724,618.40380447628,621.03361956002,621.95864588609,619.83732114312,620.93433045333,619.85185546774,621.76619165054,621.86037504394,621.43694758751,619.06307676401,621.86765320157,622.29557824626,620.299782442,620.93433045333,621.75288138766,621.75288138766,619.21460881203,619.21460881203,10454.943880912,0.0038416420166457,886.7055413065,-0.02221243675387,877.45166367792,-0.019845345937505,0
3.8651123046875e-05,802206510.62243,795786103.35698,804626971.92243,0.062463104089687,0.64760436919854,-0.22576307227148,1483673443.5294,2.249167735002e-06,1.1508953763628e-05,2.1654392251989e-06,1.0001450728567,494.04614248012,494.04614248012,496.97887703515,496.97887703515,494.38210352952,495.77225742794,497.20261194526,496.87393761906,493.21761594339,495.43694238913,497.01970994698,495.41616497901,496.96521335408,494.20369280145,496.80171600599,497.16358699452,495.88258080823,494.11387158989,495.21731365343,497.33421676113,496.92106890674,493.38352289348,494.84996181288,496.96521335408,497.01217153771,496.05287521661,494.82515928867,496.25279128252,496.84347573759,496.81842702069,493.3053248126,496.06152229981,497.01297918901,494.80747783573,495.84177440752,494.71475431172,496.74544847855,496.80984322719,496.39561152759,493.92508111181,496.86863087456,497.29746925414,495.22670996883,495.84177440752,496.73206532532,496.73206532532,494.16083168135,494.16083168135,2.5546452413478,0.0056494058851672,8.7322698805418e-06,0.026482784562223,0.0037326737899227,-9.2062499951064,-1.1315242731219,2.7612300916512e-06,0.0074279983714755,-0.00057377780706467,-0.00054113670228104,0.00020948529415826,0.0027359604350074,23.81571585065,0.0049591865046832,0.0012177211840211,0.0049271438161659,0.0013883654445381,-3.6183598563041,-0.39819283421194,-1.0136398648441e-05,0.00085543992996877,-0.00067979975381829,0.0018501601210905,-0.0002235203608566,0.00038803502630777,0.010065572513033,-11.622868936573,-1.8729613273881,7.9513422380304e-05,0.014752429092504,-0.0008399933640412,0.00079445590834861,0.020346123126396,0.0018649609105748,12.795841265456,0.002038740230451,0.00017478795843521,0.087363195467014,20.721669730452,0.0061757318769656,0.0010832638206517,0.00034206167150451,-0.36441280546478,0.00019985267251085,3.058189940707,0.00059004009895323,-0.11603337238762,618.98119571188,618.98119571188,621.91393026691,621.91393026691,619.31715676128,620.7073106597,622.13766517702,621.80899085081,618.15266917514,620.37199562089,621.95476317874,620.35121821077,621.90026658583,619.1387460332,621.73676923775,622.09864022627,620.81763403999,619.04892482165,620.15236688519,622.26926999289,621.8561221385,618.31857612524,619.78501504463,621.90026658583,621.94722476947,620.98792844837,619.76021252043,621.18784451427,621.77852896935,621.75348025245,618.24037804435,620.99657553156,621.94803242077,619.74253106749,620.77682763927,619.64980754348,621.68050171031,621.74489645895,621.33066475935,618.86013434357,621.80368410631,622.2325224859,620.16176320059,620.77682763927,621.66711855707,621.66711855707,619.09588491311,619.09588491311,7942.2471205837,0.0038572046706437,888.75661293826,-0.022417429206534,879.4678964976,-0.020044511340406,0
3.8729248046875e-05,802078534.44472,795496690.45035,804494566.90168,0.062463104089687,0.64760436919854,-0.22576307227148,1483911427.4494,2.2554166811481e-06,1.1532226704176e-05,2.171802851662e-06,1.0001486303085,493.95622269033,493.95622269033,496.96435476913,496.96435476913,494.28508222541,495.71882197464,497.16382628222,496.83767709022,493.12859911486,495.40099088303,497.00956204377,495.3767822701,496.93776018129,494.08837058419,496.75240618084,497.10990405564,495.81097503622,494.02339883126,495.15920898433,497.30938978143,496.893518899,493.30010940212,494.80302167752,496.93776018129,497.00323874938,496.02769581766,494.72656245612,496.20161488322,496.78703503629,496.77405512968,493.21325065661,496.03288519498,496.99852433849,494.75019416812,495.75287840217,494.60343753582,496.69172369397,496.74231141999,496.33174565907,493.81323458116,496.82622110909,497.25632335447,495.14725657331,495.75287840217,496.67830731599,496.67830731599,494.09050314942,494.09050314942,2.6173125215069,0.0059823276569355,9.015059755933e-06,0.026528766212785,0.0036431197566908,-9.5040771925692,-1.150409389279,2.506769862904e-06,0.0073508244148034,-0.00059434754404841,-0.00056610523621828,0.00021351525789614,0.002683511798437,24.467685044962,0.00503463206942,0.0012427870556474,0.0050536043719877,0.0013892364186824,-3.7319389709793,-0.40296868752453,-1.1051543567309e-05,0.00080211354584591,-0.00071280640836145,0.001994672891685,-0.00023381248444474,0.00038742897569746,0.0099280337633232,-11.944237333638,-1.9047748673903,8.1710819722258e-05,0.014868265142367,-0.0008621431967232,0.00075148714159222,0.020762929746663,0.0018722070049377,13.129709327434,0.0020659852698996,0.00017840271040772,0.089912363621781,21.28852342652,0.0062698291527564,0.001185674085511,0.00035923071470061,-0.36879370988895,0.0002082062171156,3.1590992467453,0.00059869246987499,-0.11914023628675,618.90011976434,618.90011976434,621.90825184314,621.90825184314,619.22897929943,620.66271904866,622.10772335623,621.78157416423,618.07249618887,620.34488795704,621.95345911778,620.32067934411,621.8816572553,619.0322676582,621.69630325485,622.05380112965,620.75487211023,618.96729590528,620.10310605834,622.25328685544,621.83741597301,618.24400647613,619.74691875154,621.8816572553,621.94713582339,620.97159289168,619.67045953013,621.14551195723,621.7309321103,621.71795220369,618.15714773063,620.976782269,621.9424214125,619.69409124213,620.69677547618,619.54733460983,621.63562076798,621.686208494,621.27564273308,618.75713165517,621.77011818311,622.20022042848,620.09115364732,620.69677547618,621.62220439,621.62220439,619.03440022343,619.03440022343,11107.096238791,0.0038649859162822,889.75851345059,-0.022518242607732,880.45259665289,-0.020142610820312,0
3.8885498046875e-05,801815712.80784,794901617.85409,804221809.71087,0.062463104089687,0.64760436919854,-0.22576307227148,1484381398.3174,2.2677437878015e-06,1.1578772131488e-05,2.1844379715062e-06,1.0001559489332,493.77143132974,493.77143132974,496.93453364335,496.93453364335,494.08560282382,495.60847000397,497.08423190835,496.76291070867,492.94560327098,495.32676131038,496.98878888725,495.29585540337,496.88121545828,493.85141981966,496.65067444945,496.99970068481,495.66365230826,493.83728828163,495.03931751275,497.25844660227,496.83676145636,493.12855479303,494.7061921564,496.88121545828,496.98497603914,495.97595660302,494.52393490068,496.0958975689,496.67117980694,496.68251988159,493.02401967314,495.97374265819,496.96884887472,494.63247935957,495.57031059494,494.37474515714,496.58086265099,496.60368114581,496.20022321074,493.58340152505,496.73875567449,497.17181501986,494.98389210365,495.57031059494,496.56737225316,496.56737225316,493.94566282405,493.94566282405,2.6800006766897,0.0061789399020316,9.6940086678827e-06,0.025747528097902,0.0034467329736048,-9.9824108097458,-1.1634321743374,2.1795437818848e-06,0.0069452640702208,-0.0006228583966391,-0.00061211519152699,0.00022008132664964,0.0026330691050223,24.940361983888,0.0051475572567558,0.0012761462394343,0.0052346414542816,0.0013940360641768,-3.9129097361671,-0.40181089897512,-1.2265272596438e-05,0.00065773617719756,-0.00075042203771208,0.0021478365982792,-0.000253174799855,0.0003786033977878,0.0094760026183301,-12.542188262933,-1.9298801471831,8.5690686882889e-05,0.014278175280926,-0.00089079786054738,0.00069465483385716,0.021351423634281,0.0018404574821954,13.372228973229,0.0021076029094183,0.0001836416511487,0.09399325929908,21.728141125112,0.0064082509541678,0.0012960018203054,0.00038251273242086,-0.37193951507158,0.00022321554331598,3.3276007300271,0.00062019108608955,-0.12383348067983,618.7336625617,618.7336625617,621.8967648753,621.8967648753,619.04783405578,620.57070123592,622.0464631403,621.72514194062,617.90783450293,620.28899254233,621.9510201192,620.25808663532,621.84344669023,618.81365105161,621.6129056814,621.96193191676,620.62588354021,618.79951951358,620.0015487447,622.22067783422,621.79899268831,618.09078602498,619.66842338836,621.84344669023,621.9472072711,620.93818783497,619.48616613263,621.05812880086,621.6334110389,621.64475111354,617.98625090509,620.93597389014,621.93108010667,619.59471059152,620.53254182689,619.33697638909,621.54309388294,621.56591237776,621.16245444269,618.545632757,621.70098690644,622.13404625182,619.9461233356,620.53254182689,621.52960348512,621.52960348512,618.907894056,618.907894056,3179.6852630219,0.00388054823588,891.71341656105,-0.022714915206336,882.37370418053,-0.020333638009796,0
3.9197998046875e-05,801278200.44398,793676079.8707,803652297.56426,0.062463104089687,0.64760436919854,-0.22576307227148,1485304768.8599,2.2932598444781e-06,1.1671863312286e-05,2.2107584210195e-06,1.0001714699097,493.39238946709,493.39238946709,496.87275667521,496.87275667521,493.67476619491,495.37632419227,496.92099947916,496.60649414351,492.56942792881,495.17071332833,496.94622546949,495.12959940773,496.76350826746,493.3643471951,496.43784916302,496.77418476091,495.35977002691,493.45313063924,494.78813827854,497.15367254203,496.71823980644,492.77502558147,494.50359155555,496.76350826746,496.94762984147,495.86935626278,494.10738251289,495.87319580486,496.43383772998,496.49084923521,492.63559964323,495.84917736941,496.90761171696,494.39096947132,495.19611838229,493.90497391805,496.34877240885,496.3201212138,495.9275988064,493.11132824377,496.55598367939,496.99837099778,494.64803162322,495.19611838229,496.33499608798,496.33499608798,493.64503472527,493.64503472527,2.8049257182685,0.0078760424581966,1.1089854164136e-05,0.0246982200137,0.0031883871320183,-10.998348478927,-1.2067245922119,1.3401261677909e-06,0.0071997324377284,-0.0006882288699156,-0.0007050837729833,0.00023375162100612,0.0025085667683711,25.985878023741,0.0053564079407327,0.0013368145647215,0.005605007193746,0.0014231581674092,-4.2950426864244,-0.40698554073253,-1.4821669182539e-05,0.00044380616051284,-0.00084007864716131,0.0024384574843181,-0.00029274631038499,0.00036692743657608,0.0088143093393816,-13.842192125002,-2.0157514912927,9.3344000875039e-05,0.018274179552402,-0.00094810855304219,0.00057132775557666,0.022532523999495,0.0018108210509842,13.895241955665,0.0021849298096927,0.00019339527853615,0.1025760529242,22.645925404091,0.0066621141295874,0.0015075605260655,0.00042954629644637,-0.39885385556224,0.00025281561027367,3.6828398576904,0.0006576433602121,-0.13355844887208,618.39311031748,618.39311031748,621.8734775256,621.8734775256,618.6754870453,620.37704504265,621.92172032954,621.60721499389,617.5701487792,620.17143417872,621.94694631988,620.13032025811,621.76422911785,618.36506804548,621.4385700134,621.77490561129,620.3604908773,618.45385148963,619.78885912893,622.15439339242,621.71896065683,617.77574643185,619.50431240594,621.76422911785,621.94835069186,620.87007711316,619.10810336328,620.87391665525,621.43455858037,621.4915700856,617.63632049362,620.8498982198,621.90833256734,619.39169032171,620.19683923268,618.90569476844,621.34949325924,621.32084206419,620.92831965679,618.11204909415,621.55670452978,621.99909184817,619.64875247361,620.19683923268,621.33571693837,621.33571693837,618.64575557565,618.64575557565,1378.8681009484,0.0039116721580259,895.41210516692,-0.023098437132189,886.00535369701,-0.020705073432032,0
3.9510498046875e-05,800718884.97105,792382485.3305,803032406.68006,0.062463104089687,0.64760436919854,-0.22576307227148,1486197749.8475,2.3180808839853e-06,1.1764957668678e-05,2.2375074949864e-06,1.0001881974365,492.99689632732,492.99689632732,496.80645796049,496.80645796049,493.24203107486,495.12003766467,496.74986475909,496.43561705406,492.17503384576,494.99888951245,496.90156948246,494.95506716579,496.63629523502,492.85155484993,496.2055341609,496.53934202929,495.03808948231,493.04632496035,494.51327734336,497.04298574455,496.58918272145,492.40215045246,494.28264828718,496.63629523502,496.9085559942,495.75662200078,493.67057314948,495.62656918063,496.185975488,496.28112723015,492.22982740277,495.71146323157,496.84251528467,494.13840701251,494.8061706078,493.41381055843,496.09502434963,496.02543056452,495.63576846299,492.61781340271,496.35695129199,496.81645545474,494.29534087622,494.8061706078,496.08059438263,496.08059438263,493.32268989113,493.32268989113,2.9688063053255,0.0099044349327798,1.2539712837965e-05,0.024371399321078,0.0030120908039431,-12.191778954498,-1.2726268416188,7.9472603167625e-08,0.0058242699024784,-0.00076990906498173,-0.00080637893213791,0.00024898868001936,0.0023466499923765,27.797834069882,0.0055668774314812,0.0014036491085911,0.0060384197609232,0.0014619950326656,-4.7389584149735,-0.42144624459307,-1.8002671283248e-05,0.00015796555469027,-0.00095981804751745,0.0027998555569649,-0.00033603623553345,0.0003629146433373,0.0083159566558634,-15.38334149664,-2.142531693955,0.00010093759616279,0.018098091220976,-0.0010166433417078,0.00042183898489261,0.023864436793701,0.0017845243864779,14.655806534434,0.0022624024563665,0.00020411406734283,0.11247346039765,24.028946878906,0.0069164918630529,0.0017675596998072,0.00049645607384601,-0.44128817897034,0.00028348003794916,4.0940627984394,0.00068769094108351,-0.14477763781722,618.03999468316,618.03999468316,621.84955631632,621.84955631632,618.28512943069,620.16313602051,621.79296311493,621.4787154099,617.21813220159,620.04198786829,621.9446678383,619.99816552163,621.67939359086,617.89465320577,621.24863251673,621.58244038513,620.08118783815,618.08942331618,619.5563756992,622.08608410039,621.63228107729,617.44524880829,619.32574664302,621.67939359086,621.95165435004,620.79972035662,618.71367150532,620.66966753647,621.22907384384,621.32422558598,617.27292575861,620.75456158741,621.88561364051,619.18150536835,619.84926896364,618.45690891426,621.13812270547,621.06852892035,620.67886681883,617.66091175854,621.40004964783,621.85955381057,619.33843923206,619.84926896364,621.12369273847,621.12369273847,618.36578824696,618.36578824696,1856.2278432941,0.0039427950889715,898.8210790818,-0.023484354615921,889.34507229333,-0.021077462456766,0
3.9666748046875e-05,800423602.27318,791692470.15141,802693033.5578,0.062463104089687,0.64760436919854,-0.22576307227148,1486631230.8828,2.3304782123042e-06,1.1811505425559e-05,2.2507850069166e-06,1.0001970039324,492.78882265205,492.78882265205,496.77063767514,496.77063767514,493.01200217308,494.97748516272,496.6589469961,496.3416642999,491.96663458613,494.90392902185,496.87791386326,494.86262517045,496.56696833857,492.5853414501,496.07768210568,496.41534848077,494.86606410762,492.82895998794,494.36179884115,496.98380237795,496.51847568063,492.20386629662,494.1615047598,496.56696833857,496.88793228508,495.69654444389,493.43936477206,495.48886049767,496.05481005779,496.16556566385,492.01626725581,495.63509263495,496.80758383118,494.00508487453,494.60070304784,493.15679351543,495.95511046233,495.8702327382,495.478023973,492.3594574544,496.24769840448,496.7197651305,494.10828294623,494.60070304784,495.94015754428,495.94015754428,493.14848592721,493.14848592721,3.098504277351,0.0099471770186976,1.3317208971852e-05,0.024616376855287,0.0029480744271015,-12.950504870975,-1.318773020312,-7.743289523477e-07,0.0056816106324396,-0.00082306636480791,-0.00086709728788074,0.0002577053299069,0.002232975232595,29.019767584007,0.0056869836938809,0.0014485990077708,0.0063185377175324,0.0014845651398525,-5.0174532408016,-0.43407403035808,-2.0008628965246e-05,0.00010505613982372,-0.0010417182079153,0.0030734694295005,-0.00036159352813476,0.00036458909241966,0.0081417355922724,-16.442858205131,-2.2243945281539,0.00010498159168531,0.016962787089779,-0.0010637328351864,0.00032129822889578,0.024704320139898,0.0017777691099718,15.386947304624,0.0023044718038289,0.00021043634618227,0.11857291825114,25.278782752527,0.0070631645386197,0.0019610954383205,0.00052484138613937,-0.45874459989809,0.00030145870153961,4.3468580310706,0.00069735413116809,-0.15180565701732,617.85476032384,617.85476032384,621.83657534693,621.83657534693,618.07793984486,620.0434228345,621.72488466788,621.40760197169,617.03257225791,619.96986669364,621.94385153505,619.92856284223,621.63290601035,617.65127912189,621.14361977747,621.48128615255,619.93200177941,617.89489765972,619.42773651293,622.04974004974,621.58441335241,617.26980396841,619.22744243159,621.63290601035,621.95386995687,620.76248211567,618.50530244384,620.55479816945,621.12074772957,621.23150333563,617.0822049276,620.70103030674,621.87352150296,619.07102254631,619.66664071963,618.22273118721,621.02104813411,620.93617040998,620.54396164478,617.42539512619,621.31363607626,621.78570280229,619.17422061802,619.66664071963,621.00609521607,621.00609521607,618.21442359899,618.21442359899,5644.6654299261,0.0039583561615607,900.41684272299,-0.023672493470647,890.9069652962,-0.021260708145681,0
3.9822998046875e-05,800113973.61287,790967469.42982,802335428.58192,0.062463104089687,0.64760436919854,-0.22576307227148,1487058543.3458,2.3435089141584e-06,1.1858053712583e-05,2.2645564173519e-06,1.0002061168175,492.57038290108,492.57038290108,496.73307232843,496.73307232843,492.77029702945,494.8265040846,496.56368440966,496.24257142091,491.74772140806,494.80356724619,496.85322380812,494.76560841331,496.49394028648,492.30586822756,495.9426998732,496.28538953907,494.68517713265,492.6003901467,494.20177958586,496.92179705345,496.44398623858,491.99542956182,494.03361792601,496.49394028648,496.86645191913,495.63349617759,493.1965829683,495.34234251566,495.9173303659,496.04359209198,491.79202991554,495.55435574149,496.77095820666,493.86515314665,494.38518233626,492.88702868929,495.80731616194,495.70756948449,495.31192803587,492.08820571914,496.13241602494,496.61834228831,493.91177016549,494.38518233626,495.79178001306,495.79178001306,492.9649936426,492.9649936426,3.1774621280174,0.0097778919858414,1.4141916211393e-05,0.024377892997764,0.0028647125942347,-13.589225277342,-1.3510282074898,-1.583008943847e-06,0.0054898934199596,-0.00086891163234745,-0.00092327898318604,0.00026521916183206,0.0021618859032096,29.753214384122,0.005774980040897,0.0014798868540517,0.0065454079598628,0.0015013527889674,-5.2581062676673,-0.44086711858277,-2.1759915698109e-05,2.9970881622106e-05,-0.0011095000227774,0.0032394583612694,-0.00038580973759219,0.0003620905281563,0.0078908477852301,-17.386638794116,-2.2853541807687,0.00010860600633092,0.015888493950656,-0.0010983664080565,0.00024348465869508,0.025342088464996,0.0017524408484569,15.76810141409,0.0023360561188626,0.00021522317142381,0.12396595429925,25.962959347848,0.0071681370595626,0.0020804375449367,0.00054532782988189,-0.47815134322922,0.00031729659467436,4.5692413924201,0.00070715579064759,-0.15764022599938,617.66095976527,617.66095976527,621.82364919262,621.82364919262,617.86087389364,619.91708094879,621.65426127385,621.3331482851,616.83829827224,619.89414411038,621.94380067231,619.8561852775,621.58451715066,617.39644509175,621.03327673738,621.37596640326,619.77575399683,617.69096701088,619.29235645004,622.01237391764,621.53456310276,617.086006426,619.1241947902,621.58451715066,621.95702878331,620.72407304177,618.28715983248,620.43291937985,621.00790723008,621.13416895616,616.88260677973,620.64493260568,621.86153507085,618.95573001083,619.47575920045,617.97760555348,620.89789302613,620.79814634867,620.40250490005,617.17878258333,621.22299288913,621.70891915249,619.00234702967,619.47575920045,620.88235687725,620.88235687725,618.05557050679,618.05557050679,14214.52121113,0.0039739169702837,901.93948309995,-0.023858447214148,892.39542693788,-0.021442015522927,0
3.9862060546875e-05,800034648.95638,790780817.81927,802242407.38135,0.062463104089687,0.64760436919854,-0.22576307227148,1487164442.543,2.3467644973494e-06,1.1869690834244e-05,2.2680242752498e-06,1.0002084465656,492.51440628029,492.51440628029,496.72335392523,496.72335392523,492.7081260629,494.78733976781,496.53921387572,496.21681245839,491.69151551702,494.77740702757,496.84688296707,494.74069437411,496.4749953462,492.23426731404,495.9076477881,496.25208771386,494.63858991857,492.54149296297,494.16022930397,496.9058294449,496.42463182354,491.94179401916,494.00037822998,496.4749953462,496.86094323478,495.61726628749,493.13423193556,495.30450756183,495.88206388492,496.01189646538,491.73454048093,495.53328068579,496.76150605593,493.82926388304,494.32995058082,492.81791444322,495.7689651328,495.66591947318,495.26901330316,492.01871142976,496.10247096854,496.59228619567,493.86129172719,494.32995058082,495.75328518805,495.75328518805,492.91753234511,492.91753234511,3.2419396107053,0.0098821377855773,1.4358828514115e-05,0.024665049468947,0.0028590593332104,-13.871411833769,-1.3699861643189,-1.8797962604e-06,0.005560711054381,-0.00088882950411714,-0.00094417233679191,0.00026816419461197,0.0021139282494123,30.562198720313,0.0058174987834582,0.0014983622232218,0.0066536685649103,0.0015090951368009,-5.3622909788874,-0.44696064853516,-2.2439648981153e-05,2.8935209970525e-05,-0.0011417112930238,0.0033658549019876,-0.00039429916818406,0.00036457543089302,0.0078805843234834,-17.599467245072,-2.317492348916,0.00010975840087484,0.015935444135391,-0.0011179838850853,0.00020423968534255,0.025670765258122,0.0017572488730676,16.178424690348,0.0023502720989301,0.00021750752184894,0.12616098561569,26.650701977725,0.0072207897077936,0.0021677518099512,0.0005544695662882,-0.48112921018651,0.0003228254080858,4.6605553247798,0.00070745260688641,-0.16025627573534,617.61128449759,617.61128449759,621.82023214253,621.82023214253,617.8050042802,619.8842179851,621.63609209302,621.31369067569,616.78839373432,619.87428524487,621.94376118437,619.83757259141,621.5718735635,617.33114553134,621.0045260054,621.34896593116,619.73546813587,617.63837118027,619.25710752127,622.0027076622,621.52151004084,617.03867223645,619.09725644728,621.5718735635,621.95782145208,620.71414450479,618.23111015286,620.40138577913,620.97894210222,621.10877468268,616.83141869823,620.63015890309,621.85838427323,618.92614210034,619.42682879812,617.91479266052,620.8658433501,620.76279769048,620.36589152046,617.11558964706,621.19934918584,621.68916441297,618.95816994449,619.42682879812,620.85016340535,620.85016340535,618.01441056241,618.01441056241,21783.269810644,0.0039778071432008,902.30717185925,-0.023904938244934,892.75466021839,-0.02148763890047,0
3.9940185546875e-05,799872056.34459,790398666.02694,802052628.16522,0.062463104089687,0.64760436919854,-0.22576307227148,1487375158.6753,2.3532451828498e-06,1.1892965051649e-05,2.2749571278724e-06,1.0002131576875,492.39958584559,492.39958584559,496.70354756964,496.70354756964,492.58078133766,494.70738444806,496.48917420036,496.1642283206,491.57629171507,494.72399537162,496.83395957561,494.68966313851,496.43630052304,492.08738583266,495.83603510924,496.18387354405,494.54318124364,492.42090428551,494.07535921872,496.87322837909,496.38513836227,491.83191406408,493.9324646339,496.43630052304,496.84972771048,495.5840703196,493.00647677982,495.22728314671,495.80986876786,495.9471741729,491.61663190561,495.49027193445,496.74221809938,493.75569447654,494.21674850286,492.67616412781,495.69061430905,495.58056895156,495.18121065613,491.87614082071,496.04129378639,496.53895546295,493.75783054946,494.21674850286,495.67465281551,495.67465281551,492.82044833323,492.82044833323,3.2659419817283,0.0098539951189087,1.4788856794425e-05,0.024418004033835,0.0028121993455234,-14.169259232461,-1.3824916336832,-2.3011015943193e-06,0.0054732022746025,-0.00091019299965453,-0.00097127417695893,0.00027154809131873,0.0020900052252331,30.738084349833,0.0058500534458343,0.0015098202500369,0.0067510045710055,0.0015153639459172,-5.4721560770803,-0.44883404388673,-2.3282884292471e-05,-1.3727625901219e-05,-0.0011727387593222,0.0034189779989625,-0.00040620273073579,0.00036221299260463,0.0077355712593242,-17.944883661156,-2.3426270896385,0.00011140938064728,0.015648203012538,-0.0011320201580636,0.00017044147885968,0.025925343399606,0.0017411621031597,16.263336053484,0.0023621476422892,0.00021945355464973,0.12863423435757,26.822540925128,0.0072583447846525,0.0022062645821161,0.00056290152126561,-0.49196920774676,0.00032982003022566,4.7656890468334,0.00071175395416425,-0.16282049307066,617.50942704254,617.50942704254,621.81338876659,621.81338876659,617.69062253461,619.81722564501,621.59901539731,621.27406951755,616.68613291202,619.83383656857,621.94380077256,619.79950433546,621.54614171999,617.19722702961,620.94587630619,621.293714741,619.65302244059,617.53074548246,619.18520041567,621.98306957604,621.49497955922,616.94175526103,619.04230583085,621.54614171999,621.95956890743,620.69391151655,618.11631797677,620.33712434365,620.91970996481,621.05701536984,616.72647310255,620.6001131314,621.85205929633,618.86553567349,619.32658969981,617.78600532476,620.800455506,620.69041014851,620.29105185308,616.98598201766,621.15113498334,621.6487966599,618.86767174641,619.32658969981,620.78449401245,620.78449401245,617.93028953018,617.93028953018,5459.7137726994,0.0039855874505537,903.03033736331,-0.023997300785796,893.46102767533,-0.021578301598463,0
4.0096435546875e-05,799544976.22551,789626835.25176,801665980.16501,0.062463104089687,0.64760436919854,-0.22576307227148,1487795696.7555,2.3661013304236e-06,1.1939513649641e-05,2.2888378438586e-06,1.0002227964358,492.16847953058,492.16847953058,496.66331641831,496.66331641831,492.3236842447,494.543888804,496.38821569691,496.05697655592,491.34405824842,494.61488569859,496.80787028323,494.58676552541,496.35760230838,491.79176403192,495.69001859989,496.04655857928,494.35028622015,492.17708579621,493.90221686404,496.80729229241,496.30464612778,491.61005238128,493.7940711329,496.35760230838,496.82709829373,495.51698119357,492.74886976225,495.06924381839,495.66440440667,495.81511749608,491.37924755667,495.4023183389,496.70315072922,493.60752047322,493.98886437551,492.39086428315,495.53079086557,495.40886689409,495.00312546004,491.58920045082,495.91663309431,496.43137419619,493.5491551823,493.98886437551,495.51419615659,495.51419615659,492.62348857055,492.62348857055,3.3144627756168,0.0097998827383524,1.5652118959298e-05,0.024005239344569,0.0027285406034614,-14.771749997943,-1.4090870677327,-3.1881357403525e-06,0.0053290361099044,-0.00095499901604016,-0.001024629058645,0.00027841016014429,0.0020356455806602,31.106680969723,0.0059137796895601,0.0015316293129728,0.0069465321964299,0.0015278961531305,-5.6930741622808,-0.45334231240815,-2.5006975070609e-05,-9.2360423694951e-05,-0.0012384671356273,0.0035236659257607,-0.00042984882733483,0.00035862918214987,0.0074709116517674,-18.715138074847,-2.3956509232962,0.00011460053719549,0.015189451260497,-0.0011602861799678,0.00010185430580593,0.026435490068771,0.001711288037402,16.438336801851,0.0023856953702168,0.00022317825012354,0.13365269260456,27.175977003887,0.007331763702216,0.0022832182201065,0.00057796899390054,-0.51539710030532,0.00034325941044208,4.9802483139357,0.00071853110449821,-0.16794134215684,617.30461178169,617.30461178169,621.79944866942,621.79944866942,617.45981649582,619.68002105511,621.52434794802,621.19310880703,616.48019049953,619.7510179497,621.94400253434,619.72289777652,621.4937345595,616.92789628303,620.826150851,621.18269083039,619.48641847126,617.31321804732,619.03834911515,621.94342454352,621.44077837889,616.74618463239,618.93020338401,621.4937345595,621.96323054484,620.65311344468,617.88500201337,620.2053760695,620.80053665778,620.95124974719,616.51537980778,620.53845059001,621.83928298033,618.74365272433,619.12499662662,617.52699653426,620.66692311668,620.5449991452,620.13925771116,616.72533270193,621.05276534542,621.5675064473,618.68528743341,619.12499662662,620.6503284077,620.6503284077,617.75962082166,617.75962082166,2330.0343118164,0.004001147891637,904.42581958624,-0.024181401315526,894.82297880799,-0.021758201051427,0
4.0174560546875e-05,799379534.48648,789233479.9734,801465732.45409,0.062463104089687,0.64760436919854,-0.22576307227148,1488004616.3229,2.3724728855419e-06,1.1962788221522e-05,2.2947833168284e-06,1.0002277468379,492.05156600044,492.05156600044,496.64259741414,496.64259741414,492.19282845178,494.45867475204,496.3368680496,496.00134052556,491.22624577562,494.55811997486,496.7945803689,494.53450651193,496.31698085652,491.64226052867,495.61431487631,495.97703579491,494.25184634755,492.05263047222,493.81235421158,496.77360021466,496.26294535401,491.49709977269,493.72238874332,496.31698085652,496.81558235674,495.48275699538,492.61806950025,494.98675062983,495.59062020141,495.74656949292,491.25908996041,495.35647036,496.68313078726,493.53244202411,493.87351869916,492.2465611352,495.44786378365,495.322051748,494.91169297553,491.44409257039,495.85207356021,496.376681071,493.44315389624,493.87351869916,495.43088485414,495.43088485414,492.52230226723,492.52230226723,3.3854222158733,0.0098865531370023,1.6108145864273e-05,0.024122399679304,0.0027002937845957,-15.211665673726,-1.4328918405578,-3.744966587012e-06,0.0053591916592531,-0.00098690649038981,-0.0010594336498486,0.00028294594579351,0.0019796848045484,31.947668505893,0.0059648952448556,0.0015534596329064,0.0070988783158627,0.0015371579521776,-5.8531490292989,-0.4597742327572,-2.6129799149436e-05,-0.00011691161172763,-0.0012883507704304,0.003662087589227,-0.00044461587702359,0.00035974926819423,0.0073852027041262,-19.290915691539,-2.4384572577642,0.00011642414999376,0.01519134902781,-0.0011858273022064,4.6986334840023e-05,0.026864215837712,0.0017059634049999,16.856499700193,0.002403245066441,0.00022613957037964,0.13708703062222,27.898213429128,0.0073931819263244,0.0023799550100977,0.00058930426008745,-0.52457508657225,0.00035165428404256,5.1284096033782,0.00071901833760456,-0.17174447941287,617.20123767216,617.20123767216,621.79226908585,621.79226908585,617.3425001235,619.60834642375,621.48653972131,621.15101219728,616.37591744733,619.70779164657,621.94425204062,619.68417818364,621.46665252824,616.79193220039,620.76398654803,621.12670746663,619.40151801927,617.20230214393,618.9620258833,621.92327188637,621.41261702573,616.6467714444,618.87206041504,621.46665252824,621.96525402845,620.6324286671,617.76774117196,620.13642230154,620.74029187313,620.89624116464,616.40876163213,620.50614203172,621.83280245897,618.68211369582,619.02319037088,617.39623280692,620.59753545536,620.47172341972,620.06136464724,616.5937642421,621.00174523192,621.52635274272,618.59282556795,619.02319037088,620.58055652585,620.58055652585,617.67197393895,617.67197393895,4999.8834163119,0.0040089280188359,905.09148278958,-0.024272644251896,895.47184920448,-0.021847704877281,0
4.0330810546875e-05,799040541.787,788426773.29054,801054682.60085,0.062463104089687,0.64760436919854,-0.22576307227148,1488419979.5314,2.3851090249279e-06,1.2009337671551e-05,2.3067093108957e-06,1.0002378607542,491.81175271961,491.81175271961,496.60016940665,496.60016940665,491.92437026352,494.28324492205,496.23171806386,495.88704093571,490.98454956215,494.44138055205,496.7674343075,494.42737620305,496.23358463914,491.33556110496,495.4586776763,495.83460412437,494.04983151358,491.79722811605,493.62755656588,496.70462471935,496.17733540467,491.26532500221,493.57504105968,496.23358463914,496.79208892344,495.4126161071,492.3497973535,494.81668150531,495.43946824366,495.60567221462,491.01260800983,495.26218027293,496.64213387912,493.37849703777,493.63706274915,491.95058349027,495.27731800882,495.1441720038,494.7239503256,491.14639671419,495.71939693151,496.26460312527,493.22569092951,493.63706274915,495.25952609842,495.25952609842,492.31450672648,492.31450672648,3.4290939088833,0.0098141427723956,1.6997894416377e-05,0.023741283845083,0.0026227799772367,-15.820384297713,-1.4598889461441,-4.7407645635419e-06,0.0052276163847716,-0.0010347776183688,-0.0011127496533876,0.00028974132177595,0.0019257495308998,32.26834553656,0.0060193282680659,0.0015731818848654,0.0072948847537459,0.0015474211633663,-6.0766510852737,-0.46450381253313,-2.7946353932009e-05,-0.00019246665116242,-0.0013595604827701,0.00375685605815,-0.0004685890998746,0.00035682103819523,0.0071354542493807,-20.127706127134,-2.4924520817834,0.00011938258840715,0.014806373543916,-0.0012137041311967,-2.1577401348617e-05,0.027346557278826,0.0016758018449597,17.002228091699,0.0024234975354914,0.00022959398342525,0.14221418776432,28.209066990562,0.0074546853160266,0.0024510844661303,0.00060201137201752,-0.55036136963571,0.0003643433322293,5.3433252398595,0.00072218503558588,-0.17680821899704,616.9894875613,616.9894875613,621.77790424834,621.77790424834,617.1021051052,619.46097976373,621.40945290554,621.06477577739,616.16228440384,619.61911539373,621.94516914918,619.60511104473,621.41131948083,616.51329594664,620.63641251799,621.01233896605,619.22756635526,616.97496295773,618.80529140756,621.88235956104,621.35507024635,616.44305984389,618.75277590136,621.41131948083,621.96982376512,620.59035094879,617.52753219518,619.99441634699,620.61720308534,620.78340705631,616.19034285152,620.43991511461,621.8198687208,618.55623187945,618.81479759083,617.12831833195,620.4550528505,620.32190684548,619.90168516728,616.32413155587,620.89713177319,621.44233796696,618.4034257712,618.81479759083,620.43726094011,620.43726094011,617.49224156816,617.49224156816,10839.919392094,0.0040244880901288,906.37329120756,-0.024454903397036,896.71987781205,-0.022025608387618,0
4.0369873046875e-05,798954999.49538,788221719.65866,800948585.02924,0.062463104089687,0.64760436919854,-0.22576307227148,1488523147.5619,2.3878177836756e-06,1.202097513955e-05,2.3103378703821e-06,1.0002404501283,491.75123718815,491.75123718815,496.58927504685,496.58927504685,491.85621807837,494.23782944523,496.20503493414,495.85752803387,490.92338605506,494.41114865066,496.76053090664,494.40023903061,496.21213382173,491.25818826065,495.41852869074,495.79862497704,493.9984382435,491.73221534803,493.57984065248,496.687041713,496.15524751323,491.20647026999,493.53703474085,496.21213382173,496.78611951078,495.39477225961,492.28184775955,494.77266511212,495.40121457877,495.56928696775,490.95037049557,495.23771695679,496.63165318223,493.33958951837,493.57735181946,491.87590239859,495.23331525905,495.09929847617,494.67593126917,491.07129965356,495.6851890984,496.23617907108,493.17060286051,493.57735181946,495.2152996777,495.2152996777,492.26130015871,492.26130015871,3.4996437884234,0.0099298853743662,1.7253382470036e-05,0.024006247664537,0.0026173341879503,-16.149547977032,-1.4787044028945,-5.1000786170629e-06,0.0053081140902111,-0.0010580607415756,-0.0011368684864251,0.00029284565813595,0.0018775831136632,33.187868497947,0.0060587877463169,0.0015919109620228,0.0074118515906965,0.0015540593804381,-6.1962874848139,-0.47042712798123,-2.8688604597075e-05,-0.00019667826917489,-0.0013974618453368,0.0038872870330379,-0.00047841594745449,0.00035928585985029,0.0071214848913505,-20.504234049419,-2.5245403424976,0.00012044857953418,0.014957003641499,-0.0012348171708304,-6.4231379762199e-05,0.027690445682182,0.0016790542146637,17.461000028493,0.0024365103020942,0.00023184795292242,0.14466688217246,28.984776533909,0.0075031855349931,0.0025408102674011,0.00061016732051653,-0.5523433650401,0.00036965676762151,5.4492094190362,0.00072010659995251,-0.17964562646091,616.93614229699,616.93614229699,621.77418015568,621.77418015568,617.04112318721,619.42273455407,621.38994004298,621.04243314271,616.1082911639,619.5960537595,621.94543601547,619.58514413945,621.39703893057,616.44309336949,620.60343379958,620.98353008587,619.18334335234,616.91712045686,618.76474576132,621.87194682184,621.34015262206,616.39137537883,618.72193984969,621.39703893057,621.97102461962,620.57967736844,617.46675286839,619.95757022096,620.5861196876,620.75419207659,616.1352756044,620.42262206562,621.81655829107,618.52449462721,618.7622569283,617.06080750743,620.41822036789,620.28420358501,619.860836378,616.2562047624,620.87009420724,621.42108417991,618.35550796934,618.7622569283,620.40020478654,620.40020478654,617.44620526755,617.44620526755,18520.696918358,0.0040283780721397,906.67857607966,-0.024500308272373,897.0167314867,-0.022070221862996,0
4.0447998046875e-05,798779537.55362,787801703.04394,800732143.85843,0.062463104089687,0.64760436919854,-0.22576307227148,1488728417.0988,2.393206499163e-06,1.2044250114886e-05,2.3176002298674e-06,1.0002456790281,491.62700498246,491.62700498246,496.56707660402,496.56707660402,491.71655095296,494.14511396351,496.1504565203,495.79728109944,490.79791309327,494.34942358586,496.74646448798,494.34462286196,496.16831866684,491.09933528207,495.33649725793,495.72488461244,493.89313772144,491.59904906197,493.48237231956,496.65114215965,496.1101785223,491.0858330897,493.45937576782,496.16831866684,496.77397112329,495.35826359165,492.14254014456,494.68282411916,495.32286886148,495.49498701106,490.8226231788,495.18779583452,496.61026769767,493.25977680162,493.4548875717,491.72261371409,495.14341220891,495.00728200867,494.5776570475,490.91710474717,495.61529842363,496.17797789709,493.05762173381,493.4548875717,495.12495505521,495.12495505521,492.15243631883,492.15243631883,3.5187963395879,0.0098839539349017,1.7711789842343e-05,0.023802759123222,0.0025777757717009,-16.460833249224,-1.4918397255777,-5.6401790596353e-06,0.0052394945522166,-0.0010829184028136,-0.0011639168783565,0.00029615763728075,0.0018527884892799,33.320359612412,0.006080898513487,0.0016010036850831,0.0075095838552303,0.0015578567242359,-6.3092924518257,-0.47263498182149,-2.9632410053571e-05,-0.00023498725189665,-0.001434819488508,0.0039307793820948,-0.00049067512563554,0.00035772938098076,0.0069940908363892,-20.899431850297,-2.5510712569821,0.00012183205012549,0.01476679302921,-0.0012486022081867,-9.8638998562332e-05,0.027915249862729,0.0016628086898826,17.517995982192,0.0024446753406365,0.00023348019616554,0.14727365862101,29.116539024529,0.0075273088886394,0.0025735957973751,0.0006159044236414,-0.5658553489547,0.00037569784418557,5.5607947076905,0.000720293322196,-0.18214539241889,616.82667656987,616.82667656987,621.76674819144,621.76674819144,616.91622254038,619.34478555093,621.35012810772,620.99695268686,615.99758468068,619.54909517328,621.94613607539,619.54429444938,621.36799025425,616.29900686949,620.53616884535,620.92455619986,619.09280930886,616.79872064939,618.68204390698,621.85081374707,621.30985010972,616.28550467711,618.65904735523,621.36799025425,621.97364271071,620.55793517906,617.34221173198,619.88249570657,620.5225404489,620.69465859848,616.02229476621,620.38746742194,621.80993928509,618.45944838904,618.65455915912,616.9222853015,620.34308379633,620.20695359609,619.77732863492,616.11677633459,620.81497001105,621.37764948451,618.25729332123,618.65455915912,620.32462664263,620.32462664263,617.35210790624,617.35210790624,4432.1025020092,0.0040361579941103,907.27751123882,-0.024590615520013,897.59880733672,-0.02215886116971,0
4.0604248046875e-05,798427313.2123,786955264.91341,800292401.61226,0.062463104089687,0.64760436919854,-0.22576307227148,1489137954.4931,2.4025114609361e-06,1.2090804145709e-05,2.3320281342769e-06,1.0002563446226,491.37746131694,491.37746131694,496.52208876108,496.52208876108,491.43515197915,493.95619399137,496.04054326334,495.67478954466,490.54553234208,494.22374756495,496.71810777398,494.23272152468,496.0794446024,490.78023754737,495.16976958391,495.5767283127,493.68074189141,491.33037851031,493.28415255225,496.57867141235,496.01859662853,490.84276130246,493.30159240075,496.0794446024,496.74949058639,495.28464269992,491.86219123211,494.49964461972,495.16530479449,495.34388499182,490.56594243497,495.08605852294,496.56703566287,493.09936637582,493.2088250647,491.41468202178,494.96062441262,494.82251841383,494.37885595308,490.60737674418,495.47331671482,496.06080552477,492.83023920707,493.2088250647,494.94121391474,494.94121391474,491.93211942345,491.93211942345,3.5567528457581,0.0094842712331729,1.13993117635e-05,0.023650787183104,0.0025093899106945,-17.089109581582,-1.5192282617893,-6.658861251262e-06,0.0051283503402404,-0.0011513028773071,-0.00089787704017914,0.00030288491169115,0.0018940064006122,33.592272453152,0.0061319431675547,0.001612822572493,0.0075744115013568,0.0015652413948689,-6.5356884715388,-0.47871058364739,-3.1549008141024e-05,0.00010299822056949,-0.0015465390016871,0.0040137309598916,-0.00036406008684391,0.00035867935203725,0.0067691501992641,-21.754813070727,-2.6088422986598,0.00012497954937726,0.014112585699379,-0.0012851092987852,0.00019820334785388,0.028362677400011,0.0016247205844445,17.635033988209,0.0024644737786126,0.00023525096994331,0.1521367278557,29.383724002464,0.0075812722901492,0.002607210860588,0.00060242577993688,-0.59642325076068,0.00038842413638425,5.7857419811722,0.00069744603349659,-0.18478306133888,616.60700007508,616.60700007508,621.75162751922,621.75162751922,616.66469073729,619.18573274951,621.27008202148,620.9043283028,615.77507110022,619.45328632309,621.94764653212,619.46226028282,621.30898336054,616.00977630551,620.39930834205,620.80626707085,618.91028064955,616.55991726845,618.51369131039,621.80821017049,621.24813538667,616.0723000606,618.53113115889,621.30898336054,621.97902934453,620.51418145806,617.09172999025,619.72918337786,620.39484355263,620.57342374997,615.79548119311,620.31559728108,621.79657442101,618.32890513397,618.43836382284,616.64422077992,620.19016317076,620.05205717197,619.60839471122,615.83691550233,620.70285547296,621.29034428291,618.05977796521,618.43836382284,620.17075267288,620.17075267288,617.16165818159,617.16165818159,1845.8781963243,0.0040517177149048,908.41390952395,-0.024770538187173,898.71290866828,-0.022289371415981,0
4.0916748046875e-05,797717639.06984,785236529.27438,799385097.35969,0.062463104089687,0.64760436919854,-0.22576307227148,1489198324.4914,2.418762415013e-06,1.2183906266974e-05,2.3631063717657e-06,1.0002784852106,490.8740234781,490.8740234781,496.42968547222,496.42968547222,490.86398355072,493.56426462729,495.817589527,495.42171388738,490.03499284062,493.96342642629,496.66045340527,494.00622101689,495.89665939287,490.13638627166,494.82555382763,495.27763306335,493.24870447595,490.78358180217,492.87445665806,496.43095178057,495.82956965305,490.34937684417,492.97609215378,495.89665939287,496.69974581669,495.13495309684,491.29444284063,494.11916246732,494.84657780861,495.03155886308,490.04780409138,494.87494213596,496.47875716304,492.77538773982,492.71205356437,490.79330253883,494.58300899635,494.44997654383,493.97215583149,489.98250068815,495.18046552536,495.82330900902,492.36974329431,492.71205356437,494.56140189182,494.56140189182,491.48104195143,491.48104195143,3.6336505363631,0.0093236361913008,1.25154814504e-05,0.023127954696117,0.0023862365330962,-18.31481797779,-1.5754093451862,-9.0988629764821e-06,0.0049295722632006,-0.0012641013917587,-0.0009789382928858,0.0003163716242152,0.0018079261659789,34.156026038808,0.0062224634984517,0.0016475836898278,0.007946187590451,0.0015783118901012,-6.9766635013056,-0.48953525805231,-3.558659619814e-05,-3.4833642767544e-05,-0.0017198228483562,0.0041989885604788,-0.00040021689359813,0.00035690634926746,0.0063623251906176,-23.329978320129,-2.7190557470739,0.00012994461200461,0.013583942265424,-0.0013438955004029,-0.00015160928426523,0.02925043791826,0.0015704942032384,17.875859142249,0.0024994714822499,0.00024166025766435,0.16249709979837,29.935203181413,0.0076815814225209,0.0027537684014974,0.00061920888019077,-0.65379673859582,0.00040966153622665,6.2303389306474,0.00068822324465587,-0.19442449949174,616.16468430237,616.16468430237,621.72034629648,621.72034629648,616.15464437499,618.85492545156,621.10825035127,620.71237471165,615.32565366489,619.25408725055,621.95111422953,619.29688184116,621.18732021714,615.42704709593,620.1162146519,620.56829388762,618.53936530022,616.07424262644,618.16511748233,621.72161260484,621.12023047731,615.64003766844,618.26675297805,621.18732021714,621.99040664096,620.4256139211,616.5851036649,619.40982329159,620.13723863288,620.32221968735,615.33846491565,620.16560296023,621.76941798731,618.06604856408,618.00271438864,616.0839633631,619.87366982062,619.7406373681,619.26281665576,615.27316151241,620.47112634963,621.11396983329,617.66040411858,618.00271438864,619.85206271609,619.85206271609,616.7717027757,616.7717027757,1584.061131105,0.0040828363759288,910.52504087694,-0.02512984613257,900.75619331186,-0.022635690078413,0
4.1541748046875e-05,795292837.81354,779946400.97178,797271152.3893,0.062463104089687,0.64760436919854,-0.22576307227148,1489691331.6653,2.4812107350813e-06,1.2370199524557e-05,2.4173852541157e-06,1.0003312516253,489.0558568511,489.0558568511,496.20743698854,496.20743698854,489.01609804829,492.69418160283,495.13667100046,494.82725038844,488.28200589372,493.37430710686,496.50466137682,493.26573154793,495.43703862156,487.766397245,493.99114726869,494.26550394886,491.89898755988,489.09567280222,491.9043972368,496.02201710492,495.38559599023,488.75671601966,492.18214226596,495.43703862156,496.56822279093,494.68696627437,489.3874833496,493.29160639192,493.80812756154,494.29554995173,488.19634088377,494.4155102172,496.24598824957,491.66100104855,490.97547428718,488.53109207385,493.67499027604,493.14998308321,492.8174821458,487.67979636681,494.46339601215,495.07234997538,490.81892017419,490.97547428718,493.65842682359,493.65842682359,490.22651500424,490.22651500424,3.9231476647871,0.0083531597276376,1.471646650204e-05,0.021635541549784,0.0019495469226751,-20.652094571597,-1.6582158221418,-1.3090140169905e-05,0.004447081600531,-0.0015505758205452,-0.0011195796828565,0.00033217451785887,0.0019074691768589,43.51121795044,0.0059641621772109,0.0017356218735619,0.0087904541516974,0.0015245536141821,-7.782838666638,-0.50220402891677,-4.1611558422087e-05,-0.00027253304291562,-0.0021519927320437,0.0045555426584336,-0.00046492835162855,0.00034389446115445,0.0049791528484764,-26.504452352677,-2.8904262913976,0.00013503105546676,0.01204987941707,-0.0014758786784529,-0.00053102895883331,0.030152054278086,0.0013106731537825,21.782506676635,0.002402543503864,0.00025698850690584,0.18473819013084,36.918627989955,0.0072730310947496,0.0031121389879475,0.00062605549749379,-0.70278045140373,0.00044139906785813,7.1352228589505,0.00061172102658354,-0.21033067579151,614.55723378223,614.55723378223,621.70881391967,621.70881391967,614.51747497942,618.19555853396,620.63804793159,620.32862731957,613.78338282486,618.87568403799,622.00603830795,618.76710847906,620.9384155527,613.26777417614,619.49252419983,619.76688087999,617.40036449101,614.59704973335,617.40577416793,621.52339403605,620.88697292136,614.25809295079,617.68351919709,620.9384155527,622.06959972206,620.1883432055,614.88886028073,618.79298332305,619.30950449267,619.79692688286,613.6977178149,619.91688714833,621.7473651807,617.16237797968,616.47685121831,614.03246900499,619.17636720717,618.65136001434,618.31885907693,613.18117329795,619.96477294328,620.57372690652,616.32029710533,616.47685121831,619.15980375472,619.15980375472,615.72789193537,615.72789193537,819.59416748202,0.0041450710409479,912.58099652365,-0.025844125728942,902.674152959,-0.023339053307821,0
4.1541749238968e-05,795292832.51624,779946360.85434,797271106.05423,0.062463104089687,0.64760436919854,-0.22576307227148,1489691333.5041,2.4797986087492e-06,1.237021308286e-05,2.4205137324767e-06,1.0003312688107,489.05585370861,489.05585370861,496.20743425825,496.20743425825,489.01608606822,492.69416331988,495.1366676131,494.82723818413,488.28199836414,493.37429044737,496.50466071205,493.26572900681,495.43703003605,487.76639333362,493.99112997155,494.26550180756,491.89897829002,489.09565788806,491.90437541079,496.02201397266,495.38558743356,488.75670476565,492.18212402938,495.43703003605,496.56822266665,494.68696375343,489.38747455033,493.29157869475,493.80812393156,494.29553477404,488.1963361443,494.4154960653,496.24598560405,491.6609983721,490.97547033653,488.53108804812,493.67497256501,493.14998132971,492.81746926884,487.67979267975,494.46338103275,495.07234625954,490.81891410885,490.97547033653,493.65841018248,493.65841018248,490.2264967408,490.2264967408,4.2722048963363,0.0089016065796236,1.5370482813679e-05,0.023501510434713,0.0019843710414164,-966.39106532861,-1.8183590402462,-1.526657514522e-05,0.0048598414544284,-0.058468896635238,-0.0011872789344689,0.00033730449013332,0.0018711142373236,50.353490298032,0.0063486967371507,0.003304853465397,0.011838066282941,0.001512389246713,-69.945839737981,-0.55110206584399,-4.4146012256435e-05,-0.00094272215274218,-0.094810341804759,0.018338200718359,-0.00049390492157616,0.00035801419597746,0.0051028022910397,-14164.367429658,-6.0287484894308,0.00013360293909173,0.012947181962403,-0.021933698285968,-0.00072616678196725,0.031244460736117,0.0013444524558229,24.90322558704,0.0028699416429349,0.00044408673714411,0.21947557496812,42.302921174217,0.0073962693046465,0.0093427312153233,0.0007905134623338,-0.67970869163825,0.00040845662571604,8.4425221785227,-0.010948477203038,-0.88030515135923,614.55727414457,614.55727414457,621.70885469421,621.70885469421,614.51750650418,618.19558375585,620.63808804906,620.32865862009,613.7834188001,618.87571088333,622.00608114801,618.76714944277,620.93845047201,613.26781376958,619.49255040751,619.76692224352,617.40039872598,614.59707832402,617.40579584675,621.52343440862,620.88700786952,614.25812520162,617.68354446535,620.93845047201,622.06964310261,620.18838418939,614.88889498629,618.79299913071,619.30954436752,619.79695521,613.69775658026,619.91691650126,621.74740604001,617.16241880806,616.47689077249,614.03250848408,619.17639300097,618.65140176567,618.3188897048,613.18121311571,619.96480146872,620.5737666955,616.32033454481,616.47689077249,619.15983061845,619.15983061845,615.72791717676,615.72791717676,1180040853.4325,0.0041450810368028,912.4567232888,-0.025556907220707,902.66323926528,-0.022864879933568,0
4.1541750431061e-05,795292855.40487,779946407.41133,797271259.75439,0.062463104089687,0.64760436919854,-0.22576307227148,1489691335.431,2.4791212486125e-06,1.2370210019589e-05,2.4212422583591e-06,1.0003312715857,489.05586235339,489.05586235339,496.20746959668,496.20746959668,489.01613029804,492.69416683564,495.13673352737,494.82725435378,488.28201060383,493.37428593811,496.50469839212,493.26573570028,495.43705020746,487.76643290303,493.99113031943,494.26555752832,491.89897987527,489.09568794914,491.9043783213,496.02207083327,495.38561151693,488.75671599218,492.18211912768,495.43705020746,496.5682620823,494.6869783803,489.38753100516,493.29157465658,493.80819487281,494.29554340251,488.19634806385,494.41549710997,496.2460187116,491.6610014975,490.97553854511,488.53114024906,493.67497036041,493.15004565974,492.81746919168,487.67981928557,494.46338712706,495.07239012664,490.81891804577,490.97553854511,493.65841029027,493.65841029027,490.22650375538,490.22650375538,4.2742788671303,0.0092164346631239,2.6484785487595e-05,0.02330339027284,0.0019819120582396,-859.17644833499,-1.8208438026294,-1.5395413053579e-05,0.0048328947352356,-0.058610013130848,-0.0016455321004904,0.00033732466119087,0.0017480380568648,50.379995326409,0.0063411714792842,0.0033703540158063,0.012110175814467,0.0015121536676047,-68.991958336589,-0.55020291202035,-4.4158530973589e-05,-0.0014632997858501,-0.095013745927185,0.01866383782217,-0.00071650305161342,0.00035473538184684,0.0050984492704511,-5656.6810353124,-6.1480441232593,0.00013302996657371,0.013258829941,-0.022120600244559,-0.0012227503449545,0.031251729532645,0.0013545125448854,24.915223152376,0.002867266398024,0.00045468396005722,0.22115131091663,42.325750069701,0.0073906036407992,0.0095657282323423,0.00082378192725498,-0.67634957738299,0.00040669902241875,8.3021063928661,-0.01098496684152,-0.87306785320459,614.55730871221,614.55730871221,621.7089159555,621.7089159555,614.51757665687,618.19561319447,620.63817988619,620.3287007126,613.78345696266,618.87573229694,622.00614475094,618.7671820591,620.93849656628,613.26787926186,619.49257667826,619.76700388715,617.40042623409,614.59713430796,617.40582468012,621.52351719209,620.88705787576,614.258162351,617.6835654865,620.93849656628,622.06970844113,620.18842473912,614.88897736399,618.7930210154,619.30964123163,619.79698976134,613.69779442267,619.9169434688,621.74746507042,617.16244785632,616.47698490394,614.03258660789,619.17641671924,618.65149201856,618.3189155505,613.18126564439,619.96483348589,620.57383648546,616.3203644046,616.47698490394,619.1598566491,619.1598566491,615.7279501142,615.7279501142,417289764.99238,0.0041450897617394,912.47028611121,-0.025558096890014,902.66451430463,-0.022914536473012,0
4.1541752815247e-05,795292848.12517,779946386.98251,797271245.92446,0.062463104089687,0.64760436919854,-0.22576307227148,1489691349.7582,2.4778826463642e-06,1.2370217866049e-05,2.4226446043601e-06,1.0003312743638,489.05585718709,489.05585718709,496.20746856231,496.20746856231,489.01612288053,492.69416092884,495.13673104941,494.82725089775,488.28200440381,493.3742805984,496.50469774362,493.26573344433,495.43704739039,487.76642607093,493.99112506514,494.26555451343,491.89897518707,489.09568016411,491.90437053515,496.02206914969,495.38560903111,488.75670930852,492.18211268521,495.43704739039,496.56826161763,494.68697686682,489.38752419415,493.2915651437,493.80819139646,494.295539137,488.19634227668,494.41549289278,496.24601751787,491.6609982544,490.97553321983,488.53113362495,493.67496522454,493.15004193587,492.8174644277,487.67981271348,494.46338249067,495.07238752391,490.81891329682,490.97553321983,493.6584058286,493.6584058286,490.2264960608,490.2264960608,4.2741101787904,0.0092824118617446,2.5913922492476e-05,0.023356078193434,0.0019751217147975,-709.4410965907,-1.9068018336471,-1.5163784233006e-05,0.004839481740664,-0.11527205995824,-0.0016162438779559,0.00033709497178076,0.0031804851123041,50.402984378302,0.0053940847902778,0.0030014445798933,0.016345862694222,0.0014636395537212,-66.812230085703,-0.55718356543946,-4.3832808191768e-05,-0.0014810113472832,-0.1286474814682,0.025150476213763,-0.00070406669306297,0.00035424135612394,0.0050978925890095,-1434.262753143,-27.496472879205,0.00013242418449442,0.01331847336045,-0.063158749989336,-0.001120621101901,0.031237091395917,0.0013566116058312,24.912611015244,0.0026845404913768,0.00037677176881916,0.27414618087965,42.342274424549,0.0052463303090195,0.0092807961348127,0.00097609588858112,-0.75801815543706,0.00040678072175863,9.7663418254443,-0.012376417075215,-0.84820519614328,614.55733057146,614.55733057146,621.70894194668,621.70894194668,614.5175962649,618.19563431321,620.63820443377,620.32872428212,613.78347778818,618.87575398277,622.00617112799,618.7672068287,620.93852077476,613.2678994553,619.49259844951,619.7670278978,617.40044857144,614.59715354848,617.40584391952,621.52354253406,620.88708241548,614.25818269289,617.68358606958,620.93852077476,622.069735002,620.18845025119,614.88899757852,618.79303852807,619.30966478083,619.79701252137,613.69781566105,619.91696627715,621.74749090223,617.16247163877,616.4770066042,614.03260700932,619.17643860891,618.65151532024,618.31893781207,613.18128609785,619.96485587504,620.57386090827,616.32038668119,616.4770066042,619.15987921297,619.15987921297,615.72796944517,615.72796944517,165525271.35213,0.0041450903334916,912.45181803432,-0.025474297917978,902.6652350829,-0.022781714693746,0
4.1541757583618e-05,795292833.40735,779946343.57677,797271215.14587,0.062463104089687,0.64760436919854,-0.22576307227148,1489691380.1796,2.4775295858998e-06,1.2370220687539e-05,2.4230073778996e-06,1.0003312794628,489.05584675313,489.05584675313,496.20746619359,496.20746619359,489.0161074604,492.69414147996,495.13672590931,494.82724237168,488.28199183659,493.37426846425,496.5046964166,493.26572868917,495.4370410773,487.76641238853,493.99111180649,494.26554837069,491.89896470083,489.0956637129,491.90435121441,496.02206553062,495.38560307909,488.75669549228,492.18209820787,495.4370410773,496.56826066321,494.6869735595,489.38751023396,493.29154570344,493.80818427558,494.29552807411,488.19633067402,494.41548326109,496.24601497779,491.66099157411,490.97552250221,488.53112035539,493.67495072396,493.15003445791,492.81745300806,487.67979953518,494.46337147878,495.072382053,490.81890320479,490.97552250221,493.65839180496,493.65839180496,490.22647926929,490.22647926929,4.2740051393642,0.0092934685727619,2.5782728064581e-05,0.025001035908971,0.0019813657691024,-550.75336100801,-4.0024689947213,-1.4712018639138e-05,0.00484097777274,-0.16663115772054,-0.0016167296168421,0.0003370467041353,0.0016632148981665,50.403996503706,0.0063309998899194,0.0026830124975853,0.032919973802885,0.0015082110687963,-63.245822586707,-0.67730070377177,-4.3714006307612e-05,-0.0014654596243069,-0.16168976526745,0.024579795533831,-0.00070161367582331,0.0003568236320461,0.0050979017595232,-1098.8551899382,-362.71765218836,0.00013310364408615,0.01332840667949,-0.095885607215903,-0.0012116481864398,0.031233885666093,0.0013569339360996,24.895488655129,0.0028517298022521,0.00034573843692521,0.465577479422,42.344069804313,0.0074476041197435,0.0079331638194118,0.0015201886758427,-1.240680761835,0.00040623384346712,13.550806819972,-0.013574162473841,-0.80775454401683,614.55733906875,614.55733906875,621.70895850921,621.70895850921,614.51759977602,618.19563379558,620.63821822494,620.3287346873,613.78348415221,618.87576077987,622.00618873222,618.76722100479,620.93853339292,613.26790470415,619.49260412211,619.76704068632,617.40045701646,614.59715602852,617.40584353003,621.52355784624,620.88709539471,614.2581878079,617.68359052349,620.93853339292,622.06975297883,620.18846587512,614.88900254958,618.79303801906,619.3096765912,619.79702038973,613.69782298964,619.91697557672,621.74750729341,617.16248388974,616.47701481783,614.03261267101,619.17644303959,618.65152677353,618.31894532368,613.1812918508,619.9648637944,620.57387436863,616.32039552041,616.47701481783,619.15988412058,619.15988412058,615.72797158491,615.72797158491,170953926.26932,0.0041450908213747,912.44503696377,-0.025465158574188,902.66432538723,-0.022765309534559,0
4.154176235199e-05,795292818.45743,779946299.20651,797271183.13593,0.062463104089687,0.64760436919854,-0.22576307227148,1489691410.9148,2.4775208850922e-06,1.2370222167825e-05,2.4230248137035e-06,1.0003312824197,489.05583620927,489.05583620927,496.20746362342,496.20746362342,489.01609190487,492.69412100203,495.13672105283,494.82723324624,488.28197926983,493.37425605732,496.50469503081,493.26572375264,495.4370345323,487.76639863508,493.99109783682,494.26554212024,491.89895372122,489.09564708766,491.90433119039,496.02206182459,495.38559669296,488.75668163614,492.18208346678,495.4370345323,496.56825963455,494.6869700511,489.38749618475,493.29152552998,493.80817689089,494.29551622947,488.19631906832,494.4154733596,496.24601235209,491.66098473824,490.97551177184,488.53110702063,493.67493526912,493.1500269276,492.81744090844,487.67978627752,494.4633599653,495.07237642233,490.81889278372,490.97551177184,493.65837666834,493.65837666834,490.22646225099,490.22646225099,4.2739857751256,0.0092935433839627,2.5777671632018e-05,0.025032109434144,0.0019813184086879,-454.91007472539,-3.1820969017331,-1.4724388403575e-05,0.0048408418929882,-0.16671855147565,-0.001616523405475,0.00033703844166141,0.0016635689626387,50.404027489184,0.0063262450351059,0.0026860120968457,0.032857111204515,0.001507614322195,-60.339527499052,-0.67792106539688,-4.3720022895199e-05,-0.0014504791790134,-0.16194548307367,0.02464419645075,-0.00070151861816615,0.00035688327122566,0.0050978016414576,-455.2764528567,-175.76124668161,0.00013307529858337,0.013328252012207,-0.096077097116473,-0.0012114673218738,0.031233482416114,0.0013569129810594,24.895364107794,0.0028490166574052,0.00034602286457119,0.46489979438567,42.344074733644,0.0074453272543126,0.0079480831966383,0.0015175027237143,-1.2428963612469,0.00040590684525336,13.510109022858,-0.013708232964579,-0.77405611104566,614.55734621781,614.55734621781,621.70897363195,621.70897363195,614.51760191341,618.19563101056,620.63823106137,620.32874325478,613.78348927837,618.87576606586,622.00620503935,618.76723376118,620.93854454084,613.26790864362,619.49260784536,619.76705212878,617.40046372976,614.5971570962,617.40584119893,621.52357183312,620.8871067015,614.25819164467,617.68359347531,620.93854454084,622.06976964309,620.18848005964,614.88900619328,618.79303553852,619.30968689943,619.79702623801,613.69782907686,619.91698336814,621.74752236063,617.16249474678,616.47702178038,614.03261702916,619.17644527766,618.65153693614,618.31895091698,613.18129628605,619.96486997384,620.57388643087,616.32040279225,616.47702178038,619.15988667688,619.15988667688,615.72797225953,615.72797225953,166969489.98404,0.0041450912986222,912.44455912289,-0.025465523754913,902.66372911022,-0.02276609398806,0
4.1541771888733e-05,795292788.60022,779946210.7297,797271119.44605,0.062463104089687,0.64760436919854,-0.22576307227148,1489691472.4221,2.4775145419451e-06,1.2370225057158e-05,2.4230445199347e-06,1.0003312864667,489.05581511705,489.05581511705,496.20745839294,496.20745839294,489.01606093908,492.69407926863,495.13671071195,494.82721492557,488.28195429835,493.37423154476,496.50469219584,493.26571384606,495.43702150673,487.76637111343,493.99106984478,494.26552948073,491.89893169253,489.09561409158,491.90429117685,496.02205419156,495.38558386016,488.75665417302,492.1820543436,495.43702150673,496.56825748724,494.6869629857,489.38746810936,493.29148610388,493.80816216215,494.29549239085,488.19629594371,494.41545377782,496.24600707975,491.66097104568,490.97549014122,488.53108030978,493.67490400043,493.15001167836,492.81741659401,487.67975975903,494.46333700949,495.07236508685,490.81887189207,490.97549014122,493.65834577577,493.65834577577,490.22642858752,490.22642858752,4.2739509953539,0.0092934108357059,2.5774707876724e-05,0.025060150533207,0.0019812466385805,-353.93909905716,-2.7965307987181,-1.4741181954977e-05,0.0048406189125516,-0.16613958685849,-0.0016163874486572,0.00033702649382274,0.0016637338223389,50.403838931548,0.0063156347773197,0.0026891591010097,0.032749078381236,0.0015067984561125,-54.621973787076,-0.67865531660465,-4.3728910675975e-05,-0.0014249577923509,-0.16126014057086,0.024701718019536,-0.00070146586422165,0.00035694245705103,0.0050976422569345,-241.80475736336,-89.021378483045,0.00013303546048644,0.013327789361027,-0.096091241683941,-0.001211375389798,0.031232906082401,0.0013568697334037,24.89525178441,0.0028396119009619,0.00034633746465588,0.46312551307855,42.34389298302,0.0074414681663375,0.0079631267826853,0.0015140730643462,-1.2430204040172,0.00040575520606818,13.409788427854,-0.013801373382208,-0.71353655117642,614.55734553283,614.55734553283,621.70898880872,621.70898880872,614.51759135487,618.19560968441,620.63824112774,620.32874534135,613.78348471413,618.87576196055,622.00622261162,618.76724426184,620.93855192252,613.26790152922,619.49260026057,619.76705989651,617.40046210831,614.59714450736,617.40582159263,621.52358460735,620.88711427594,614.2581845888,617.68358475938,620.93855192252,622.06978790302,620.18849340148,614.88899852514,618.79301651967,619.30969257793,619.79702280663,613.6978263595,619.9169841936,621.74753749553,617.16250146147,616.477020557,614.03261072556,619.17643441622,618.65154209415,618.3189470098,613.18129017481,619.96486742527,620.57389550264,616.32040230785,616.477020557,619.15987619156,619.15987619156,615.7279590033,615.7279590033,48861936.506444,0.0041450922503277,912.44393740161,-0.025465915095992,902.66296698156,-0.022766971158726,0
4.1541790962219e-05,795292729.13835,779946037.25007,797270996.79782,0.062463104089687,0.64760436919854,-0.22576307227148,1489691595.5059,2.4775100634767e-06,1.2370230782707e-05,2.4230691770508e-06,1.000331292404,489.05577298196,489.05577298196,496.20744806465,496.20744806465,489.01600043759,492.69399979019,495.13668974748,494.82717951037,488.2819052202,493.37418513076,496.50468654369,493.26569410431,495.43699643254,487.76631617023,493.99101615375,494.2655041477,491.89888826252,489.09555015108,491.90421507671,496.0220389941,495.38555894716,488.75660074678,492.1819991003,495.43699643254,496.56825311965,494.68694895136,489.38741280288,493.29141154976,493.80813301116,494.29544641357,488.1962501013,494.41541664967,496.24599679056,491.66094371403,490.97544695266,488.53102700436,493.67484388328,493.14998101912,492.8173691178,487.67970679992,494.46329298567,495.07234261714,490.81883036927,490.97544695266,493.6582861611,493.6582861611,490.22636419456,490.22636419456,4.2738960934134,0.0092930499685578,2.577463684818e-05,0.025086449716773,0.0019811385241332,-261.54759827663,-2.6173276241756,-1.4764283023423e-05,0.0048402693815126,-0.16496739769283,-0.0016163337899711,0.00033700975155462,0.0016637354348882,50.403381269836,0.0062987920018108,0.0026926012761943,0.032525555514668,0.0015055196984798,-46.531224266652,-0.67901177766379,-4.3741523343222e-05,-0.0013892638906779,-0.16002400649372,0.024754572984008,-0.00070146617651085,0.00035700729840784,0.0050973964729314,-147.02232981757,-49.713626894482,0.00013297875025209,0.013326957947456,-0.095927392863466,-0.0012113829187715,0.031232097241392,0.0013567977351165,24.895189146882,0.0028241226204551,0.00034670296639543,0.45917865982291,42.343479589215,0.0074357059920046,0.00797893778099,0.0015077220948084,-1.2394087438225,0.00040559000836078,13.20016084325,-0.013941280068422,-0.62808607335676,614.55733105315,614.55733105315,621.70900613584,621.70900613584,614.51755850878,618.19555786138,620.63824781867,620.32873758156,613.78346329139,618.87574320195,622.00624461488,618.7672521755,620.93855450373,613.26787424142,619.49257422493,619.76706221889,617.40044633371,614.59710822227,617.40577314789,621.52359706529,620.88711701835,614.25815881797,617.68355717149,620.93855450373,622.06981119084,620.18850702255,614.88897087407,618.79296962095,619.30969108235,619.79700448476,613.69780817249,619.91697472086,621.74755486175,617.16250178522,616.47700502385,614.03258507555,619.17640195446,618.65153909031,618.31892718899,613.18126487111,619.96485105686,620.57390068833,616.32038844046,616.47700502385,619.15984423229,619.15984423229,615.72792226575,615.72792226575,18124589.427289,0.004145094151521,912.44309596583,-0.025466376149118,902.66195652559,-0.022768036987451,0
4.1541829109192e-05,795292610.98858,779945701.29024,797270766.5797,0.062463104089687,0.64760436919854,-0.22576307227148,1489691841.8154,2.4775072702208e-06,1.2370242193465e-05,2.4231018296646e-06,1.000331301468,489.05568889043,489.05568889043,496.20742804452,496.20742804452,489.01588392341,492.69385493627,495.13664826026,494.82711284828,488.28180962654,493.37410036771,496.50467544645,493.26565492632,495.43694940141,487.76620666581,493.99091638369,494.26545361053,491.89880359243,489.09542859906,491.90407587011,496.02200931685,495.38551173116,488.75649839399,492.18189787445,495.43694940141,496.56824434465,494.68692130391,489.38730498608,493.29127546399,493.80807565659,494.29536029752,488.19615960626,494.4153487034,496.24597711944,491.66088927117,490.97536120939,488.53092089029,493.67473215987,493.14991958731,492.81727814876,487.67960116046,494.46321102328,495.07229851352,490.81874827665,490.97536120939,493.65817502962,493.65817502962,490.22624442445,490.22624442445,4.273809887154,0.0092924273800778,2.5778628009383e-05,0.025109748989725,0.0019809778800518,-187.02757614723,-2.5213650454342,-1.4795412048025e-05,0.0048397316481478,-0.16315473123176,-0.0016163868761543,0.00033698726919295,0.0016635875945009,50.402406342237,0.0062756132414805,0.0026964703913656,0.032089025749963,0.0015035829023091,-37.068193948595,-0.67830227273966,-4.3758537514637e-05,-0.0013492370452118,-0.15830216343504,0.024800628887326,-0.00070153706184111,0.00035708152233377,0.0050970243332111,-98.080329217026,-30.200779650947,0.00013289948140328,0.013325679791089,-0.095551739183545,-0.0012115105974322,0.031230990929526,0.001356688124701,24.895200844757,0.0028024342128638,0.00034713950156773,0.45168772977101,42.342637223596,0.0074280489047574,0.0079959983124623,0.0014954479037153,-1.2290354015278,0.00040534126474278,12.835887846317,-0.014168790490681,-0.52890016008904,614.55728707464,614.55728707464,621.70902622874,621.70902622874,614.51748210763,618.19545312048,620.63824644448,620.3287110325,613.78340781076,618.87569855192,622.00627363066,618.76725311053,620.93854758562,613.26780485003,619.49251456791,619.76705179474,617.40040177665,614.59702678328,617.40567405433,621.52360750106,620.88710991537,614.2580965782,617.68349605866,620.93854758562,622.06984252887,620.18851948812,614.88890317029,618.79287364821,619.30967384081,619.79695848173,613.69775779048,619.91694688761,621.74757530366,617.16248745539,616.47695939361,614.03251907451,619.17633034408,618.65151777153,618.31887633297,613.18119934467,619.96480920749,620.57389669774,616.32034646086,616.47695939361,619.15977321383,619.15977321383,615.72784260866,615.72784260866,7824419.5140655,0.0041450979520154,912.44196492098,-0.025466942746279,902.66062199563,-0.022769367197338,0
4.1541905403137e-05,795292376.60683,779945056.20886,797270342.94736,0.062463104089687,0.64760436919854,-0.22576307227148,1489692334.7451,2.4775060406595e-06,1.2370264985255e-05,2.4231468535009e-06,1.0003313158069,489.05552118415,489.05552118415,496.20738972591,496.20738972591,489.01566176519,492.69360045493,495.13656714469,494.82698994389,488.28162452303,493.37395034189,496.50465385318,493.26557740747,495.43686295298,487.76598863426,493.99073568338,494.26535305674,491.89863981179,489.09520076377,491.90382972115,496.02195203211,495.38542386641,488.75630442946,492.18171781067,495.43686295298,496.56822682913,494.68686715151,489.38709620967,493.29103524632,493.80796326706,494.29520267669,488.19598142906,494.41522808174,496.24594004646,491.66078099404,490.9751915063,488.53070995261,493.67453006944,493.14979670507,492.81710623444,487.67939059414,494.46306203403,495.07221248681,490.81858656906,490.9751915063,493.65797335147,493.65797335147,490.2260266465,490.2260266465,4.2736730511423,0.009291508075057,2.5787743434194e-05,0.025126422973193,0.0019807401343058,-131.58170549328,-2.4541703003755,-1.4836566660193e-05,0.0048389268501047,-0.16082645084339,-0.0016165691191706,0.00033695840632748,0.0016633290237406,50.400411906524,0.0062481281090871,0.0027009062545715,0.031297915293448,0.0015007485849257,-28.019325307859,-0.67547942844921,-4.3780586665865e-05,-0.0013148430461192,-0.15649244505989,0.024833435312535,-0.00070169452144824,0.00035716768414095,0.005096461347667,-70.876333028659,-19.458737813015,0.00013279095528169,0.013323868171125,-0.094931939853731,-0.0012117743279379,0.031229518441964,0.0013565284569251,24.895302284109,0.0027767008436629,0.00034766646048412,0.43914526461014,42.340974085648,0.0074191612764415,0.0080148451417743,0.0014724989664401,-1.2068672333261,0.00040483534295196,12.300915070569,-0.014559233953117,-0.43581948714191,614.55717980355,614.55717980355,621.7090483453,621.7090483453,614.51732038458,618.19525907432,620.63822576409,620.32864856328,613.78328314242,618.87560896128,622.00631247258,618.76723602686,620.93852157237,613.26764725365,619.49239430278,619.76701167613,617.40029843118,614.59685938317,617.40548834054,621.5236106515,620.8870824858,614.25796304885,617.68337643006,620.93852157237,622.06988544853,620.1885257709,614.88875482906,618.79269386571,619.30962188646,619.79686129609,613.69764004846,619.91688670113,621.74759866585,617.16243961343,616.47685012569,614.032368572,619.17618868883,618.65145532447,618.31876485383,613.18104921353,619.96472065342,620.5738711062,616.32024518845,616.47685012569,619.15963197086,619.15963197086,615.7276852659,615.7276852659,3800775.3127262,0.0041451055513408,912.44048343518,-0.025467657797727,902.65889262189,-0.022771037948166,0
4.1542057991028e-05,795291875.03199,779943263.50997,797268803.45444,0.062463104089687,0.64760436919854,-0.22576307227148,1489693321.3236,2.4775166464717e-06,1.2370310488091e-05,2.4232223321409e-06,1.0003313426148,489.05517893215,489.05517893215,496.20728254252,496.20728254252,489.01500078663,492.69230941889,495.13636131429,494.82654904275,488.28113302099,493.37324957415,496.50459794725,493.26541001081,495.43654274646,487.76553378644,493.98999802892,494.26514189836,491.89821491806,489.09443642657,491.90261043082,496.02179691836,495.38512768547,488.75570091149,492.18088963349,495.43654274646,496.56819059297,494.68674056385,489.38654275443,493.28985415115,493.80769543686,494.29460714278,488.19556923381,494.41468016332,496.24582124029,491.66055618273,490.97481510489,488.53026245965,493.67369293945,493.1495500005,492.8165781274,487.67895660918,494.46247043161,495.0719993589,490.81822297784,490.97481510489,493.65715552951,493.65715552951,490.225137586,490.225137586,4.273401900868,0.0092893214146091,2.5827467412332e-05,0.025139305765333,0.0019802165032612,-121.03473801059,-2.3907963398052,-1.4908965653505e-05,0.0048372236224263,-0.17450393504085,-0.0016174714837235,0.00033690437511761,0.0016621732287486,50.396231842354,0.0062749678700758,0.0027076963772544,0.029977670297297,0.0014778522559229,-31.439465566933,-0.66999572578584,-4.3819488842527e-05,-0.0012831172383095,-0.21903037456786,0.024835037805859,-0.00070232838691198,0.00035728982717623,0.005095361792557,-59.776200545864,-13.056485360248,0.00013256127672411,0.013319987411164,-0.094707361524219,-0.0012127541195765,0.031226734612803,0.0013562018476547,24.89531931417,0.0029364295222532,0.00034862969429792,0.42033575141293,42.337518132736,0.0074112194170688,0.0080394029434286,0.0014324912415416,-1.1667549687664,0.0003773082389033,11.632307491407,-0.026984630614934,-0.35984396250863,614.55704553486,614.55704553486,621.70914914522,621.70914914522,614.51686738933,618.19417602159,620.638227917,620.32841564546,613.7829996237,618.87511617686,622.00646454996,618.76727661352,620.93840934917,613.26740038915,619.49186463162,619.76700850106,617.40008152076,614.59630302927,617.40447703352,621.52366352106,620.88699428817,614.2575675142,617.6827562362,620.93840934917,622.07005719567,620.18860716655,614.88840935713,618.79172075385,619.30956203957,619.79647374549,613.69743583651,619.91654676602,621.747687843,617.16242278544,616.4766817076,614.03212906236,619.17555954215,618.65141660321,618.31844473011,613.18082321188,619.96433703432,620.57386596161,616.32008958054,616.4766817076,619.15902213222,619.15902213222,615.7270041887,615.7270041887,2574519.6143147,0.0041451207470359,912.43775867465,-0.025468860489231,902.65585016512,-0.022773943996139,0
4.1542363166809e-05,795290840.27152,779939322.82573,797265248.27377,0.062463104089687,0.64760436919854,-0.22576307227148,1489695296.1052,2.4776220897973e-06,1.237040100405e-05,2.4234311885372e-06,1.0003314165028,489.05448808448,489.05448808448,496.20704782011,496.20704782011,489.01348523952,492.68625611501,495.13591913191,494.82550687737,488.28004720245,493.37137775257,496.50447460194,493.26506662249,495.43577962395,487.76460891173,493.98810759968,494.26471245066,491.89729553878,489.09259680502,491.89827951314,496.02145892755,495.38444555637,488.7542963082,492.17861786794,495.43577962395,496.56811595524,494.68647518894,489.38532512172,493.2858439261,493.80712936523,494.29315604226,488.19469815081,494.41327209076,496.24554779024,491.66010020523,490.97403514643,488.52934768503,493.67149579251,493.14905614136,492.81537306649,487.67807761157,494.46099940209,495.07154251924,490.81746947965,490.97403514643,493.65504030496,493.65504030496,490.22278352771,490.22278352771,4.2725379340966,0.0092782763734989,2.6159220850847e-05,0.025224587644679,0.0019782767667723,-300.51712263586,-2.3428777633713,-1.5177490624723e-05,0.0048294871585026,-0.13602833078034,-0.0016247782703851,0.00033667459013814,0.0016527280852097,50.386632004503,0.0060622513219685,0.0027333638503801,0.027996929028522,0.0014286293860168,-9.5219843134752,-0.66864773027453,-4.3972932019049e-05,-0.0013378722167539,-0.19427992061272,0.024777951543009,-0.0007072546321155,0.00035764047288875,0.0050916368879935,-42.245137240975,-9.146548747184,0.00013177611429037,0.013302297983903,-0.088712211653574,-0.0012197088550573,0.031215498445384,0.0013548924696496,24.894180281065,0.0025906234183409,0.00035346026309537,0.39501942048042,42.329168870334,0.0073764279359943,0.0081024729633208,0.0013706284735372,-1.1082004164406,0.00037817239880991,10.924141982505,-0.04801709962867,-0.26996294515347,614.55761948158,614.55761948158,621.7101792172,621.7101792172,614.51661663662,618.18938751211,620.63905052901,620.32863827446,613.78317859955,618.87450914967,622.00760599904,618.76819801958,620.93891102104,613.26774030883,619.49123899678,619.76784384776,617.40042693588,614.59572820212,617.40141091024,621.52459032465,620.88757695347,614.2574277053,617.68174926503,620.93891102104,622.07124735234,620.18960658604,614.88845651882,618.7889753232,619.31026076232,619.79628743936,613.6978295479,619.91640348786,621.74867918734,617.16323160233,616.47716654353,614.03247908213,619.17462718961,618.65218753846,618.31850446359,613.18120900866,619.96413079919,620.57467391634,616.32060087675,616.47716654353,619.15817170206,619.15817170206,615.72591492481,615.72591492481,3335414.1657554,0.0041451511251828,912.42739960089,-0.025473261294285,902.64433792663,-0.02278521067985,0
4.1542439460754e-05,795290612.10446,779938758.18643,797264934.69664,0.062463104089687,0.64760436919854,-0.22576307227148,1489695790.062,2.4776311751028e-06,1.2370423731701e-05,2.4234631942196e-06,1.000331429126,489.05432213051,489.05432213051,496.20701532472,496.20701532472,489.01329529257,492.68611028116,495.13584499608,494.82541626229,488.27987963962,493.37128591289,496.50445513841,493.26499211731,495.43571603558,487.76439408233,493.98798464682,494.26461419364,491.89714947037,489.09241419935,491.89813540578,496.02140868871,495.38437821424,488.75413360476,492.17850481204,495.43571603558,496.56809902027,494.68642502709,489.38513685893,493.28570487593,493.80702431245,494.29304369607,488.19452807591,494.41319692504,496.24551768881,491.65999418916,490.97387138692,488.52914094539,493.67135997904,493.14893402599,492.81523251401,487.67786944305,494.4608957083,495.07146356855,490.81731602048,490.97387138692,493.65490305946,493.65490305946,490.22263070691,490.22263070691,4.2726802539264,0.0092773411028635,2.6197343343042e-05,0.025241394010516,0.0019780273731772,-144.45770484892,-2.3421939712642,-1.5208402392549e-05,0.0048287689993785,-0.13395815311914,-0.0016256167686397,0.00033665406806221,0.0016518920701729,50.392454804738,0.0060557682888465,0.002736663111378,0.027804023789405,0.0014283210162953,-9.2866996281743,-0.66935690277379,-4.3991055262017e-05,-0.0013476263595865,-0.17380810181844,0.024786641707314,-0.00070781944708261,0.00035769418207656,0.0050911641107068,-41.59829809345,-8.4835551714285,0.00013169360269773,0.013300755624808,-0.088908804836409,-0.0012205203060303,0.031214905454077,0.001354748269562,24.897153795416,0.0025539471791236,0.00035403818607424,0.39340153347088,42.333333290912,0.0073758911485038,0.0081121222352038,0.0013622637160085,-1.1049885552709,0.00038567281784944,10.942824013017,-0.043476520573579,-0.27066270714203,614.5575147153,614.5575147153,621.71020790951,621.71020790951,614.51648787736,618.18930286595,620.63903758087,620.32860884709,613.78307222441,618.87447849769,622.0076477232,618.7681847021,620.93890862037,613.26758666712,619.49117723161,619.76780677843,617.40034205516,614.59560678414,617.40132799057,621.5246012735,620.88757079903,614.25732618955,617.68169739684,620.93890862037,622.07129160506,620.18961761188,614.88832944372,618.78889746072,619.31021689725,619.79623628086,613.6977206607,619.91638950983,621.74871027361,617.16318677395,616.47706397171,614.03233353018,619.17455256383,618.65212661078,618.3184250988,613.18106202784,619.96408829309,620.57465615334,616.32050860527,616.47706397171,619.15809564425,619.15809564425,615.7258232917,615.7258232917,9615649.2781732,0.0041451587221682,912.42630651282,-0.02547390862456,902.64300466428,-0.022786689511947,0
4.1542592048645e-05,795290155.72979,779937627.28927,797264305.42136,0.062463104089687,0.64760436919854,-0.22576307227148,1489696778.163,2.4776373819141e-06,1.2370469253384e-05,2.4235093613296e-06,1.0003314494723,489.05399018905,489.05399018905,496.20695019994,496.20695019994,489.0129147877,492.68581831054,495.13569654195,494.82523429658,488.27954423029,493.37110097873,496.50441617875,493.26484303664,495.43558840445,487.76396437015,493.98773738411,494.26441762107,491.89685691542,489.09204809408,491.89784250337,496.0213080485,495.38424306798,488.75380764292,492.17827718003,495.43558840445,496.56806514046,494.68632461003,489.38475995207,493.28542256895,493.8068140672,494.29281794236,488.19418780961,494.41304566068,496.24545736159,491.65978210586,490.97354375105,488.52872739362,493.67108669227,493.1486897673,492.81495067717,487.67745306608,494.46068732745,495.0713055174,490.8170088991,490.97354375105,493.65462693911,493.65462693911,490.22232363234,490.22232363234,4.2724829792862,0.0092762656093337,2.6225296489072e-05,0.025235259829501,0.0019777173945886,-81.304280616623,-2.3123505042243,-1.5247803115078e-05,0.004827826550488,-0.13177783203764,-0.0016262268313727,0.00033663104381791,0.0016515501111958,50.388255350171,0.0060519202523678,0.0027399653651197,0.02697064746757,0.0014288668403062,-9.1701186492931,-0.66481495274795,-4.4012432625441e-05,-0.0013568662521741,-0.15991240895875,0.024749790576484,-0.00070824636941076,0.0003577410142547,0.0050904376612705,-39.979512191203,-7.6763122763061,0.00013159733962365,0.013298822481192,-0.088317187099138,-0.0012210785220536,0.031213558850761,0.0013545628707045,24.896588471956,0.0025321905958549,0.00035455148126221,0.3830699266892,42.330044256222,0.0073751502060231,0.0081230938554044,0.0013355772746093,-1.0780012316694,0.00039079153316783,10.662536292289,-0.039969324772966,-0.27128631223092,614.55726460959,614.55726460959,621.71022462048,621.71022462048,614.51618920825,618.18909273109,620.6389709625,620.32850871712,613.78281865084,618.87437539928,622.00769059929,618.76811745719,620.938862825,613.26723879069,619.49101180465,619.76769204162,617.40013133597,614.59532251463,617.40111692391,621.52458246905,620.88751748853,614.25708206347,617.68155160057,620.938862825,622.07133956101,620.18959903058,614.88803437262,618.78869698949,619.31008848775,619.79609236291,613.69746223016,619.91632008123,621.74873178214,617.1630565264,616.4768181716,614.03200181417,619.17436111282,618.65196418785,618.31822509772,613.18072748663,619.963961748,620.57457993795,616.32028331965,616.4768181716,619.15790135966,619.15790135966,615.72559805289,615.72559805289,3444895.7684156,0.0041451739175813,912.42519869541,-0.025474582689199,902.64161434926,-0.022788128098295,0
4.1542897224426e-05,795289244.15905,779935371.48873,797263054.81077,0.062463104089687,0.64760436919854,-0.22576307227148,1489698755.1253,2.4776441544062e-06,1.237056032344e-05,2.4235844167107e-06,1.0003314859107,489.05332684543,489.05332684543,496.20682104389,496.20682104389,489.01215532572,492.68524163291,495.13540069737,494.82487344716,488.2788739208,493.37073336609,496.50433870294,493.2645456891,495.43533465824,487.76310547829,493.98724662997,494.26402529007,491.89627416562,489.09131775151,491.89725915437,496.02110790721,495.3839750394,488.75315669805,492.17782424324,495.43533465824,496.56799786671,494.68612470654,489.38400736825,493.28486211085,493.80639463785,494.29237032477,488.19350756847,494.41274518948,496.24533734197,491.65935863694,490.97288930147,488.52790090511,493.6705445664,493.148201972,492.8143903089,487.67662080615,494.46027349004,495.07099042002,490.81639618529,490.97288930147,493.65407948092,493.65407948092,490.2217117293,490.2217117293,4.2721387160352,0.0092749471274283,2.6250930333022e-05,0.025212293221251,0.0019772425639223,-56.106592306411,-2.2630978003344,-1.5299569951239e-05,0.0048266061232792,-0.12953512926908,-0.0016268031493081,0.00033660560211876,0.0016516183238715,50.379873196251,0.0060489831292143,0.0027440328194138,0.025628036802004,0.0014282669587312,-9.0645734868144,-0.65660168163075,-4.40393484001e-05,-0.0013671010769328,-0.15053840328901,0.024662849896305,-0.00070865565795363,0.00035778882197794,0.0050892327422284,-38.037571384314,-6.6962470550532,0.00013146896344595,0.013296339160567,-0.087140796103068,-0.0012216022002306,0.031211815603485,0.0013542882049555,24.894995917734,0.0025180201984212,0.00035512420731103,0.36716467701264,42.323611289871,0.0073740142695054,0.0081378927131446,0.0012917151722605,-1.0345349177804,0.00039399809853736,10.28914699681,-0.037703451265692,-0.27194698810297,614.55673085602,614.55673085602,621.71022505449,621.71022505449,614.51555933632,618.18864564351,620.63880470797,620.32827745776,613.7822779314,618.87413737669,622.00774271354,618.76794969969,620.93873866883,613.26650948889,619.49065064056,619.76742930067,617.39967817622,614.59472176211,617.40066316497,621.52451191781,620.88737905,614.25656070865,617.68122825384,620.93873866883,622.07140187731,620.18952871714,614.88741137885,618.78826612145,619.30979864845,619.79577433537,613.69691157907,619.91614920008,621.74874135257,617.16276264754,616.47629331207,614.03130491571,619.173948577,618.6516059826,618.3177943195,613.18002481674,619.96367750064,620.57439443062,616.31980019589,616.47629331207,619.15748349152,619.15748349152,615.72511573989,615.72511573989,1170970.2616004,0.0041452043084921,912.42387656196,-0.02547556323412,902.63991896266,-0.022790039646682,0
4.1543507575989e-05,795287424.43859,779930878.28679,797260578.40019,0.062463104089687,0.64760436919854,-0.22576307227148,1489702711.408,2.4776571469187e-06,1.2370742454164e-05,2.4237106837458e-06,1.0003315535661,489.05200172974,489.05200172974,496.20656608405,496.20656608405,489.01064159614,492.68410778067,495.13481252345,494.82416096489,488.27753512273,493.37000573157,496.50418523941,493.26395334278,495.43483191068,487.76138944764,493.98627677121,494.26324324405,491.89511548011,489.08986338256,491.89610535406,496.02071126948,495.38344577044,488.7518582181,492.17692650813,495.43483191068,496.56786491009,494.68572763773,489.38250633901,493.2837577369,493.8055592801,494.29148675293,488.19214811568,494.41215092097,496.24509938185,491.6585136906,490.97158319867,488.52625000503,493.66947407174,493.14722877194,492.81327922898,487.67495784325,494.45945484326,495.07036338404,490.81517513586,490.97158319867,493.65299915837,493.65299915837,490.22049580732,490.22049580732,4.271503120828,0.009273019156585,2.6276882167228e-05,0.025161550197654,0.0019764435197618,-42.21816524553,-2.1931894148721,-1.536934197631e-05,0.0048248777983082,-0.12627021958342,-0.0016274118263693,0.00033657710547595,0.0016522872779805,50.362983832187,0.0060461554101504,0.0027492159383235,0.023720154794242,0.0014265696908936,-8.9602485188818,-0.64410172163172,-4.407421350809e-05,-0.0013776001024896,-0.14314334728471,0.024475128360235,-0.00070908898819016,0.00035781645089511,0.0050870856455002,-35.999372628751,-5.6958441350123,0.00013129309105795,0.013292680134232,-0.084805074673363,-0.0012221442919457,0.031209359775374,0.001353833428592,24.890583260548,0.0025076903277565,0.00035581652642276,0.34544711104571,42.310856025999,0.007372188058338,0.0081572619296219,0.0012282316482969,-0.97406450155652,0.00039602430740135,9.8455779342878,-0.036173156303255,-0.27256158077763,614.55563518979,614.55563518979,621.7101995441,621.7101995441,614.51427505619,618.18774124072,620.6384459835,620.32779442494,613.78116858278,618.87363919162,622.00781869946,618.76758680283,620.93846537073,613.26502290769,619.48991023126,619.7668767041,617.39874894016,614.59349684261,617.39973881411,621.52434472953,620.88707923049,614.25549167815,617.68055996818,620.93846537073,622.07149837014,620.18936109778,614.88613979906,618.78739119695,619.30919274015,619.79512021298,613.69578157573,619.91578438102,621.7487328419,617.16214715065,616.47521665872,614.02988346508,619.17310753179,618.65086223199,618.31691268903,613.1785913033,619.96308830331,620.57399684409,616.31880859591,616.47521665872,619.15663261843,619.15663261843,615.72412926737,615.72412926737,484682.08109599,0.0041452650890001,912.42229785724,-0.025477122288884,902.63783117962,-0.022792815365922,0
4.1544728279114e-05,795283770.58519,779921781.26549,797255496.12115,0.062463104089687,0.64760436919854,-0.22576307227148,1489710630.0362,2.4776836319706e-06,1.2371106690668e-05,2.4239345556999e-06,1.0003316824731,489.0493449095,489.0493449095,496.20604529703,496.20604529703,489.00759135249,492.68169852421,495.13363339,494.82266913241,488.27484991494,493.36848989365,496.50388123288,493.26275595423,495.4337983018,487.75795898478,493.98423766793,494.26167977824,491.89274680142,489.08691767137,491.89368139468,496.01991208253,495.38234508052,488.74924121643,492.17506547741,495.4337983018,496.56760201076,494.68492043938,489.37949403719,493.28138709542,493.80388916365,494.28962520768,488.18942743022,494.41091171205,496.24462038217,491.65681258785,490.96897476762,488.52295162637,493.66720863524,493.14528767299,492.81097876597,487.67163084723,494.45774689015,495.06910174081,490.81270315464,490.96897476762,493.65070549463,493.65070549463,490.2180051141,490.2180051141,4.2702963744435,0.009269950586824,2.6303664195988e-05,0.025074709578759,0.0019750264259127,-33.959746254135,-2.109508483348,-1.5465719585715e-05,0.0048222731713821,-0.12127933709441,-0.0016280722070589,0.00033654624730161,0.0016541099271358,50.32906412746,0.0060427573120002,0.0027553985670652,0.02141801075916,0.0014246007623263,-8.8656985455056,-0.62809367802225,-4.4120292660436e-05,-0.0013858373839194,-0.13602276042526,0.024134621991733,-0.00070955766852749,0.00035778916283212,0.0050831027491345,-34.914455380738,-4.8391053708566,0.00013104741821496,0.013286850919398,-0.080791471954865,-0.0012227004286341,0.03120564799431,0.0013530335944827,24.879383085869,0.0024990413057903,0.00035665083304567,0.320052622518,42.285561260641,0.0073690922402638,0.0081798953762447,0.0011508657429137,-0.90427663926336,0.00039748239481296,9.5304551160439,-0.034854940861457,-0.27290185445527,614.55342481636,614.55342481636,621.7101252039,621.7101252039,614.51167125935,618.18577843107,620.63771329686,620.32674903928,613.77892982181,618.87256980052,622.00796113975,618.76683586109,620.93787820867,613.26203889164,619.48831757479,619.7657596851,617.39682670829,614.59099757824,617.39776130154,621.52399198939,620.88642498738,614.2533211233,617.67914538428,620.93787820867,622.07168191763,620.18900034624,614.88357394405,618.78546700228,619.30796907052,619.79370511455,613.69350733709,619.91499161892,621.74870028904,617.16089249472,616.47305467449,614.02703153324,619.1712885421,618.64936757985,618.31505867284,613.17571075409,619.96182679701,620.57318164768,616.3167830615,616.47305467449,619.15478540149,619.15478540149,615.72208502097,615.72208502097,292067.0210848,0.004145386647459,912.42042295332,-0.025479817461757,902.63524313499,-0.022797266361014,0
4.1547169685364e-05,795276429.22288,779903414.97882,797245137.90844,0.062463104089687,0.64760436919854,-0.22576307227148,1489726482.8338,2.4776715611725e-06,1.2371835514352e-05,2.4244221719113e-06,1.000331939564,489.0440167267,489.0440167267,496.20498453798,496.20498453798,489.00145870156,492.67622238023,495.13127594471,494.8195306681,488.26947165133,493.3653368814,496.50328135115,493.26033459753,495.43168210036,487.75110300366,493.97988870707,494.25855741724,491.88789452083,489.08096478862,491.88847722892,496.0183071907,495.38005648867,488.74397923763,492.17120929688,495.43168210036,496.56708360091,494.68327977577,489.37346028593,493.27547403788,493.80055672636,494.28564800378,488.18398519024,494.40833600108,496.24366089705,491.65338624332,490.96377107913,488.51636495984,493.66226186138,493.14141889549,492.80618275658,487.6649750791,494.45417135653,495.06656819429,490.80769549266,490.96377107913,493.64563370208,493.64563370208,490.2129089748,490.2129089748,4.2679685361191,0.0092667973550709,2.6317003407471e-05,0.025016485397894,0.0019723195430606,-28.819570739735,-2.0289526523223,-1.5634717523305e-05,0.0048181880771706,-0.11837163065865,-0.0016281314492605,0.00033650668139368,0.0016603571485952,50.262595846143,0.0060369727314785,0.0027603621670398,0.019309294314109,0.0014226286076686,-8.7819325182964,-0.61206258310402,-4.4183795839788e-05,-0.0013882899758666,-0.13140850992967,0.023758900690505,-0.00070975252580597,0.00035783079134758,0.0050754876820922,-40.886622213211,-4.2823321961216,0.00013057365117512,0.013278713605939,-0.077159076500443,-0.0012224461777566,0.031199075501359,0.001351649677926,24.854000253406,0.0024906639322994,0.00035751120741667,0.29572004722201,42.236341715527,0.0073623022844733,0.0081992393810307,0.0010803839473351,-0.84004111174714,0.00039846821403459,8.841725783447,-0.033589332658695,-0.27258788269653,614.54918786243,614.54918786243,621.71015567371,621.71015567371,614.50662983729,618.18139351597,620.63644708044,620.32470180383,613.77464278706,618.87050801713,622.00845248688,618.76550573326,620.9368532361,613.25627413939,619.4850598428,619.76372855298,617.39306565656,614.58613592435,617.39364836465,621.52347832643,620.8852276244,614.24915037336,617.67638043262,620.9368532361,622.07225473664,620.1884509115,614.87863142166,618.78064517361,619.30572786209,619.79081913951,613.68915632597,619.91350713682,621.74883203279,617.15855737905,616.46894221487,614.02153609558,619.16743299711,618.64659003122,618.31135389232,613.17014621483,619.95934249227,620.57173933002,616.31286662839,616.46894221487,619.15080483781,619.15080483781,615.71808011054,615.71808011054,342495.34147719,0.004145629766601,912.41693962544,-0.025485880467625,902.6304580529,-0.022807710494657,0
4.1547780036926e-05,795274625.74564,779899002.42278,797242767.52813,0.062463104089687,0.64760436919854,-0.22576307227148,1489730463.0027,2.4776863438062e-06,1.2372017614642e-05,2.4245229143446e-06,1.0003320017,489.0426997157,489.0426997157,496.20474432353,496.20474432353,488.99996899503,492.67516262502,495.13070461413,494.81885651464,488.26814231426,493.36464121481,496.50313506794,493.25975256362,495.43119970197,487.74939703709,493.97896701551,494.25778811979,491.88676437457,489.07953866348,491.88738061406,496.01792728068,495.37955581229,488.74269664556,492.17034609081,495.43119970197,496.56695824222,494.68289457102,489.3719792326,493.27443957586,493.79973821445,494.28481259311,488.18263194205,494.40776978538,496.24343251763,491.65255037489,490.96247949785,488.51472564383,493.66124821573,493.14045798866,492.8051115164,487.66332102008,494.45339027723,495.06595565959,490.80649341211,490.96247949785,493.64461366868,493.64461366868,490.21172710721,490.21172710721,4.2695697927101,0.0092671944054861,2.6325249714468e-05,0.025028086893751,0.0019718123262849,-28.117117558628,-2.0285581222002,-1.5664288037248e-05,0.0048186106947187,-0.12174387003718,-0.0016286215845837,0.00033653267775864,0.0016608783587584,50.308810897668,0.0060361764687004,0.0027625816922813,0.019173188185939,0.0014235393912472,-8.782466851996,-0.61191424925576,-4.4201023828805e-05,-0.0013913858496246,-0.13277525443293,0.023736096222717,-0.00070998352904463,0.00035785562202937,0.0050740186105261,-34.504122547543,-4.1754685827063,0.0001305025411576,0.013279357723038,-0.078288274559289,-0.0012232492136514,0.031203128672519,0.0013513963256758,24.873604119033,0.0024882293292124,0.00035778248260965,0.29547892004721,42.270770504761,0.0073615066837482,0.0082098857581665,0.0010718542516387,-0.83754993208616,0.000399275685516,8.8561364207739,-0.033046925869317,-0.27295257509402,614.54806982324,614.54806982324,621.71011443106,621.71011443106,614.50533910256,618.18053273256,620.63607472167,620.32422662217,613.7735124218,618.87001132235,622.00850517547,618.76512267115,620.93656980951,613.25476714463,619.48433712305,619.76315822732,617.39213448211,614.58490877102,617.3927507216,621.52329738822,620.88492591982,614.24806675309,617.67571619835,620.93656980951,622.07232834975,620.18826467855,614.87734934014,618.77980968339,619.30510832198,619.79018270064,613.68800204958,619.91313989292,621.74880262517,617.15792048242,616.46784960539,614.02009575137,619.16661832326,618.64582809619,618.31048162394,613.16869112762,619.95876038476,620.57132576712,616.31186351964,616.46784960539,619.14998377622,619.14998377622,615.71709721475,615.71709721475,1273318.4385522,0.0041456905446834,912.41650770045,-0.02548714395373,902.62973459218,-0.022809654111015,0
4.1549000740051e-05,795271016.28832,779890168.89458,797238020.98493,0.062463104089687,0.64760436919854,-0.22576307227148,1489738424.3341,2.4777276343157e-06,1.2372381740992e-05,2.4247082180603e-06,1.0003321239106,489.04006375026,489.04006375026,496.20426338073,496.20426338073,488.99698694077,492.67303766405,495.12956108001,494.81750601042,488.26548153041,493.36324745079,496.50284231014,493.25858752721,495.43023355892,487.74598264414,493.97712019803,494.25624846357,491.88450165029,489.07668354768,491.88518315291,496.01716681888,495.3785529959,488.74012913609,492.16861690747,495.43023355892,496.56670739568,494.68212344396,489.36901477053,493.27236712306,493.79810006716,494.28313875371,488.1799234535,494.4066353382,496.24297530394,491.65087734259,490.95989456803,488.51144469379,493.65921671798,493.13853493926,492.80296612261,487.66001048992,494.45182549106,495.06472956047,490.80408711481,490.95989456803,493.6425691762,493.6425691762,490.20936033951,490.20936033951,4.268421633331,0.0092642946094232,2.6337494186812e-05,0.024950584565883,0.0019705501188887,-27.086244998869,-1.9954787877098,-1.5722980077305e-05,0.0048166601698411,-0.11693463935276,-0.0016290296953935,0.0003365243487934,0.0016625384707511,50.27474260282,0.0060342615489179,0.0027652106094078,0.018286383544999,0.0014227992727382,-8.7518964358156,-0.60478655292324,-4.4228678593005e-05,-0.0013889669352195,-0.12906006137588,0.023452637676007,-0.00071023478773345,0.00035771601359565,0.0050703041538783,-32.583626615659,-3.9821990407475,0.00013035299420914,0.013274313376848,-0.074611421144126,-0.0012235963891368,0.031200494285018,0.001350666740821,24.860075317235,0.0024859540059597,0.0003581793709903,0.28588895025312,42.24568000587,0.0073591224313973,0.0082175992557079,0.001042298323868,-0.81359087160138,0.00039942239576773,8.7172997803553,-0.032621482288441,-0.27259392606854,614.54581723175,614.54581723175,621.71001686222,621.71001686222,614.50274042226,618.17879114554,620.6353145615,620.32325949191,613.7712350119,618.86900093228,622.00859579163,618.7643410087,620.93598704041,613.25173612563,619.48287367952,619.76200194506,617.39025513178,614.58243702917,617.39093663439,621.52292030037,620.88430647739,614.24588261758,617.67437038896,620.93598704041,622.07246087717,620.18787692545,614.87476825202,618.77812060455,619.30385354864,619.7888922352,613.68567693499,619.91238881969,621.74872878543,617.15663082408,616.46564804952,614.01719817528,619.16497019947,618.64428842075,618.3087196041,613.16576397141,619.95757897255,620.57048304196,616.3098405963,616.46564804952,619.14832265769,619.14832265769,615.715113821,615.715113821,323844.93573622,0.0041458120992746,912.41602919042,-0.025489301718368,902.62876045145,-0.022812749157431,0
4.1551442146301e-05,795263807.20137,779872545.85816,797228581.72289,0.062463104089687,0.64760436919854,-0.22576307227148,1489754345.0188,2.4778248991634e-06,1.237310989466e-05,2.4250553312234e-06,1.0003323648023,489.03479712942,489.03479712942,496.20330902008,496.20330902008,488.9910364051,492.6688188416,495.12728332623,494.81482320835,488.26016637713,493.36047587172,496.50226090854,493.25626293257,495.42831178615,487.7391608789,493.97344914664,494.25317655544,491.87999021194,489.07098866511,491.88081504372,496.01565478664,495.37656125162,488.73500355783,492.1651758138,495.42831178615,496.56620993072,494.68058726846,489.36309758469,493.26825445513,493.7948333232,494.27981345652,488.17451125028,494.40438051287,496.24206622871,491.64753642481,490.95473367366,488.50489058514,493.65517963867,493.13469629857,492.79869416337,487.65339570681,494.44871411306,495.06228536798,490.79928441675,490.95473367366,493.63850730278,493.63850730278,490.20464431761,490.20464431761,4.2661667527987,0.0092582625849814,2.636072325133e-05,0.024809681579029,0.0019681039543313,-25.89773189644,-1.9525472492459,-1.5819424211838e-05,0.004812961426945,-0.10909845526012,-0.0016298905320406,0.00033651708609996,0.0016654186331129,50.20722706868,0.0060309234742679,0.0027682656893252,0.017147845604247,0.0014222085994105,-8.7096409759268,-0.59485030917826,-4.4276869891294e-05,-0.0013809937181623,-0.12293861693024,0.022987461951461,-0.00071073052873166,0.00035741137249633,0.0050630058763362,-31.478031083023,-3.7529418282485,0.00013011611751628,0.013264254343595,-0.068708762309317,-0.0012243615779013,0.031195718282264,0.0013492258317006,24.832311876601,0.0024824820556793,0.00035873998712268,0.27357548951552,42.196074246903,0.007354824268632,0.0082229600913996,0.0010043568242035,-0.78488507006639,0.00039968551970141,8.5400296216992,-0.031826178563062,-0.27171354830953,614.54130292755,614.54130292755,621.70981481821,621.70981481821,614.49754220324,618.17532463974,620.63378912437,620.32132900649,613.76667217527,618.86698166986,622.00876670668,618.7627687307,620.93481758429,613.24566667704,619.47995494478,619.75968235358,617.38649601008,614.57749446325,617.38732084185,621.52216058478,620.88306704976,614.24150935596,617.67168161194,620.93481758429,622.07271572886,620.1870930666,614.86960338283,618.77476025327,619.30133912133,619.78631925465,613.68101704842,619.91088631101,621.74857202685,617.15404222295,616.46123947179,614.01139638328,619.16168543681,618.6412020967,618.3051999615,613.15990150495,619.9552199112,620.56879116612,616.30579021489,616.46123947179,619.14501310091,619.14501310091,615.71115011575,615.71115011575,117472.79166542,0.0041460552058173,912.41577426966,-0.025493250440426,902.62764156414,-0.022818068212223,0
4.1556324958801e-05,795249418.9835,779837423.43063,797209844.62579,0.062463104089687,0.64760436919854,-0.22576307227148,1489786153.0752,2.4780444256974e-06,1.2374566028104e-05,2.4257078728831e-06,1.0003328397813,489.02428108832,489.02428108832,496.20141988414,496.20141988414,488.97917377416,492.66046367177,495.12275274095,494.80950536724,488.24955619907,493.35497536238,496.50110896902,493.25162918656,495.42449634705,487.72553998554,493.96616696354,494.24705347554,491.87100576428,489.05964173483,491.87215014882,496.01265407285,495.37261410946,488.72478004274,492.158340074,495.42449634705,496.56522603236,494.67753130351,489.35129692502,493.26011287953,493.78832599276,494.2732217138,488.16370288778,494.3999083588,496.24026235807,491.64086993834,490.94443797165,488.49180666725,493.64717420211,493.12704036641,492.79020070492,487.64018679141,494.44253974713,495.05741890025,490.78970731695,490.94443797165,493.63045529683,493.63045529683,490.19526007763,490.19526007763,4.2617788396572,0.009245914650931,2.6404523572157e-05,0.02458109222695,0.0019633820918453,-24.761164647201,-1.904154386764,-1.5972209434457e-05,0.0048059510423186,-0.09764302051605,-0.0016316642821395,0.00033652149427406,0.0016704120234542,50.075127354008,0.0060251202847418,0.0027697400443394,0.015896776073473,0.0014225274710295,-8.6577087344339,-0.58261411630009,-4.4359333553944e-05,-0.0013607714520258,-0.11360415161344,0.022304453208323,-0.00071169613868776,0.00035682608124913,0.0050487455560337,-30.59720822887,-3.5284583006121,0.00012976097396634,0.013244367826151,-0.060331232877846,-0.0012259846604927,0.031187191450931,0.0013464006674274,24.776472613995,0.0024773990861023,0.00035937439480045,0.25997407078895,42.09915938287,0.0073470855509311,0.0082131173140349,0.00096305258046716,-0.75612499058277,0.00040017897067989,8.3462145343291,-0.030388400409107,-0.26978388421463,614.53226647694,614.53226647694,621.70940527277,621.70940527277,614.48715916279,618.1684490604,620.63073812957,620.31749075587,613.7575415877,618.86296075101,622.00909435765,618.75961457519,620.93248173567,613.23352537417,619.47415235217,619.75503886417,617.3789911529,614.56762712346,617.38013553745,621.52063946148,620.88059949809,614.23276543136,617.66632546263,620.93248173567,622.07321142099,620.18551669214,614.85928231365,618.76809826816,619.29631138138,619.78120710243,613.67168827641,619.90789374743,621.7482477467,617.14885532697,616.45242336028,613.99979205587,619.15515959074,618.63502575504,618.29818609355,613.14817218004,619.95052513576,620.56540428888,616.29769270558,616.45242336028,619.13844068545,619.13844068545,615.70324546625,615.70324546625,74160.150343797,0.0041465414138185,912.41668050644,-0.025500494968287,902.6270237284,-0.022827171404374,0
4.1566090583801e-05,795220402.00606,779765093.06311,797170405.46781,0.062463104089687,0.64760436919854,-0.22576307227148,1489849549.9025,2.4784535557313e-06,1.2377478404606e-05,2.4270116983644e-06,1.0003337843282,489.00319965536,489.00319965536,496.19748566958,496.19748566958,488.95499341042,492.64182359175,495.113593211,494.79815499369,488.22805600322,493.34279418777,496.49867386274,493.24222903944,495.41624622137,487.6983086583,493.95024017254,494.23471100813,491.8525468835,489.03624822822,491.85310652698,496.00652642563,495.36426300732,488.70381324277,492.14341847218,495.41624622137,496.56318155931,494.6712683734,489.32745175731,493.24188954026,493.77524484946,494.2590284417,488.14196602332,494.38994810502,496.23639982065,491.62743123385,490.9238306222,488.46565004436,493.6296278794,493.11172259012,492.7724090794,487.61376614711,494.42908825554,495.04743820192,490.77029969923,490.9238306222,493.61288496909,493.61288496909,490.17539509927,490.17539509927,4.2533902990489,0.0092235510012935,2.646964362711e-05,0.024268599136772,0.0019542490620772,-24.263750384599,-1.8587088996685,-1.625384612905e-05,0.0047927689275553,-0.16171842691499,-0.0016345492840873,0.00033655570800844,0.0016811571022392,49.824809708154,0.0060144221331034,0.0027791823008412,0.014777469905597,0.0014231314890609,-8.6378504030355,-0.56989970669239,-4.450394439048e-05,-0.0013207289943262,-0.17457957038607,0.021428670302099,-0.00071321234299365,0.00035583165552594,0.0050210861651104,-30.832199181563,-3.3576664101534,0.00012909591383284,0.013207530343097,-0.074948043637742,-0.0012285832346806,0.031171648738663,0.0013410014490768,24.669725445609,0.002469846422517,0.0003611547538013,0.24758777060358,41.915147698748,0.0073323001973026,0.0082259088387485,0.00092801817902918,-0.7321885611949,0.00040086333011652,8.2338503473351,-0.030975578172789,-0.26615639986634,614.5143251143,614.5143251143,621.70861112852,621.70861112852,614.46611886936,618.15294905069,620.62471866994,620.30928045263,613.73918146215,618.85391964671,622.00979932168,618.75335449838,620.92737168031,613.20943411724,619.46136563148,619.74583646707,617.36367234244,614.54737368716,617.36423198592,621.51765188457,620.87538846626,614.21493870171,617.65454393112,620.92737168031,622.07430701825,620.18239383234,614.83857721625,618.7530149992,619.2863703084,619.77015390064,613.65309148226,619.90107356396,621.74752527959,617.13855669279,616.43495608114,613.9767755033,619.14075333834,618.62284804906,618.28353453834,613.12489160605,619.94021371448,620.55856366086,616.28142515817,616.43495608114,619.12401042803,619.12401042803,615.68652055821,615.68652055821,51240.595115898,0.0041475138289032,912.41967954815,-0.025515407825158,902.62727384138,-0.02284593632781,0
4.1570973396301e-05,795206114.80272,779730229.95408,797151889.08271,0.062463104089687,0.64760436919854,-0.22576307227148,1489881044.6028,2.4786756844421e-06,1.2378934493699e-05,2.4276433354254e-06,1.0003342547047,488.99275491737,488.99275491737,496.19563236555,496.19563236555,488.94322287519,492.6335437663,495.10912029036,494.79290783666,488.21751069729,493.33733416391,496.49754265826,493.23763518587,495.41246931307,487.68478557329,493.94302652102,494.22864630262,491.84364260458,489.02498664073,491.84451258831,496.00357362852,495.36037386995,488.6936538284,492.13663017603,495.41246931307,496.56221999202,494.6682471096,489.3157454111,493.23382516462,493.76880632511,494.25251710369,488.13122453092,494.38551296939,496.2346197783,491.62081378185,490.91362160756,488.45266399361,493.62169899191,493.10413583079,492.76399951708,487.60064915551,494.42297229644,495.04262071327,490.76079902936,490.91362160756,493.60491795281,493.60491795281,490.16607720164,490.16607720164,4.2565369636017,0.0092176170465092,2.6511600551332e-05,0.024205469667927,0.0019501656360308,-23.886469089646,-1.8507981500278,-1.6384287720863e-05,0.004791087914826,-0.14139706453376,-0.001637220825447,0.00033668938884598,0.0016843455907089,49.907370264918,0.0060107964281428,0.0027817561219188,0.014533123226936,0.0014247932825302,-8.6192167642754,-0.56773566780235,-4.4586902629033e-05,-0.0013102163652476,-0.16047056762553,0.020998720481158,-0.00071442098162762,0.00035555865691104,0.0050087314790257,-30.383162479721,-3.3119700423671,0.00012882497296738,0.013199247431296,-0.063269786668921,-0.0012323403535401,0.031182862747326,0.0013386714448015,24.70213928944,0.0024668073251834,0.00036177093968678,0.24538641667767,41.978253555034,0.0073270621071545,0.0082308007114028,0.00091950991938679,-0.72684248181462,0.00040148735201743,8.1778460154496,-0.029734797180534,-0.26568719514504,614.50532679514,614.50532679514,621.70820424332,621.70820424332,614.45579475296,618.14611564407,620.62169216813,620.30547971443,613.73008257506,618.84990604168,622.01011453603,618.75020706364,620.92504119084,613.19735745106,619.45559839879,619.74121818039,617.35621448235,614.53755851851,617.35708446609,621.51614550629,620.87294574772,614.20622570617,617.64920205381,620.92504119084,622.07479186979,620.18081898737,614.82831728887,618.7463970424,619.28137820289,619.76508898146,613.64379640869,619.89808484716,621.74719165608,617.13338565963,616.42619348534,613.96523587138,619.13427086968,618.61670770856,618.27657139486,613.11322103329,619.93554417421,620.55519259104,616.27337090713,616.42619348534,619.11748983058,619.11748983058,615.67864907941,615.67864907941,65805.514720254,0.0041480000335827,912.4215688894,-0.025522514379731,902.62781672783,-0.022854489264255,0
4.1580739021301e-05,795176939.66307,779656607.54536,797111862.86523,0.062463104089687,0.64760436919854,-0.22576307227148,1489943764.0004,2.4789471235183e-06,1.2381847589694e-05,2.4290507289429e-06,1.0003352076672,488.97169334038,488.97169334038,496.19166240994,496.19166240994,488.91880000258,492.61257438085,495.09997779632,494.78134907948,488.19574612285,493.32392567296,496.49492360067,493.22819878011,495.40367014967,487.65762937347,493.92594822922,494.21624928537,491.82510387174,489.00110849564,491.82356076458,495.99744079898,495.35193181686,488.67222330874,492.12039691133,495.40367014967,496.56007083976,494.66194030139,489.29182969598,493.21346273051,493.75576489374,494.23790982517,488.10936709216,494.3745462849,496.23046737329,491.60735454953,490.8930846107,488.42658850884,493.60286892274,493.08885319111,492.74594086219,487.57428871168,494.40859961758,495.03244744109,490.74140347978,490.8930846107,493.58637519052,493.58637519052,490.14520076105,490.14520076105,4.2484465172595,0.00920117062629,2.6531077077848e-05,0.023994048660013,0.0019411892346194,-25.041677556815,-1.8308056923581,-1.6773099314946e-05,0.0047787926677995,-0.31990165927875,-0.0016385131734576,0.00033672530950667,0.0016988013374537,49.66863199175,0.0060000468880006,0.0028221991836384,0.014184677769444,0.0014230500018408,-8.5948146018355,-0.56135915774375,-4.4728026590656e-05,-0.0012767836646363,-0.50426053416246,0.020243232007821,-0.0007150679059056,0.0003547059081282,0.0049817721114748,-32.342752464157,-3.2684272190984,0.00012774243912998,0.013168183684015,-0.06213493689037,-0.0012333266772876,0.031167410838914,0.0013336092124872,24.598457972424,0.0024609281863003,0.00036648807046702,0.24093193386558,41.802674991101,0.0073117068577537,0.0083917134197753,0.00091453426134224,-0.72027543735196,0.00040104656283206,8.0738178708424,-0.040418007056205,-0.26250526961798,614.48774217285,614.48774217285,621.7077112424,621.7077112424,614.43484883504,618.12862321331,620.61602662879,620.29739791194,613.71179495531,618.83997450542,622.01097243313,618.74424761257,620.91971898213,613.17367820593,619.44199706169,619.73229811783,617.3411527042,614.51715732811,617.33960959705,621.51348963144,620.86798064932,614.1882721412,617.63644574379,620.91971898213,622.07611967222,620.17798913386,614.80787852844,618.72951156298,619.2718137262,619.75395865763,613.62541592462,619.89059511736,621.74651620575,617.12340338199,616.40913344316,613.9426373413,619.1189177552,618.60490202358,618.26198969465,613.09033754414,619.92464845004,620.54849627355,616.25745231224,616.40913344316,619.10242402298,619.10242402298,615.66124959351,615.66124959351,48423.565670152,0.0041489724613316,912.42279836741,-0.02554059118637,902.62645399634,-0.022878829624732,0
4.1585621833801e-05,795162280.16992,779619932.2325,797092358.67485,0.062463104089687,0.64760436919854,-0.22576307227148,1489975054.2313,2.4788651123704e-06,1.2383305186396e-05,2.4299336787027e-06,1.0003357040673,488.96118933185,488.96118933185,496.18972638031,496.18972638031,488.90661823009,492.59939574387,495.09546433746,494.77580547323,488.18478226708,493.31683688698,496.49354208803,493.22351172546,495.39918189821,487.64409079551,493.91726663373,494.21006133357,491.81603077972,488.98914305135,491.81187072684,495.9944310037,495.34788092781,488.66139530788,492.11183236815,495.39918189821,496.55895519772,494.65882413752,489.2799242897,493.2003496162,493.74930107975,494.23087835562,488.0983888722,494.36880684126,496.22830339402,491.60065196005,490.88286773236,488.41359516208,493.59329757937,493.08124068626,492.73716047329,487.56114269656,494.40131159298,495.02734740413,490.73183682522,490.88286773236,493.57723536451,493.57723536451,490.13451485335,490.13451485335,4.2516475224849,0.0092061422441246,2.6481391443177e-05,0.02394924648234,0.0019369043486829,-26.591245672001,-1.8319707755035,-1.7171805782079e-05,0.0047782329734585,-0.13852597935531,-0.0016379132587611,0.00033683054777719,0.0017097585411728,49.755486541736,0.0059950712289119,0.0029168728730316,0.014455272241739,0.0014226190925653,-8.5638238482887,-0.56120498352817,-4.4829738358741e-05,-0.0012710728590727,-0.42040108141636,0.020951473287395,-0.00071454769463455,0.00035439468891201,0.004969423588487,-38.905019631621,-3.2986283757445,0.00012648737853155,0.013169352851165,-0.016840476105485,-0.0012338226612287,0.031176880762157,0.0013316304773661,24.632499565916,0.0024583400253953,0.00037616944799278,0.24355207303588,41.868814975322,0.0073042062751419,0.0088029703484717,0.00093343578508805,-0.72133117737943,0.00039975570937003,8.1105318496207,-0.038593708019998,-0.26215071715597,614.4797565282,614.4797565282,621.70829357666,621.70829357666,614.42518542645,618.11796294023,620.61403153382,620.29437266958,613.70334946344,618.83540408333,622.01210928439,618.74207892182,620.91774909457,613.16265799186,619.43583383008,619.72862852992,617.33459797608,614.50771024771,617.3304379232,621.51299820005,620.86644812417,614.17996250424,617.6303995645,620.91774909457,622.07752239407,620.17739133388,614.79849148605,618.71891681255,619.2678682761,619.74944555197,613.61695606855,619.88737403761,621.74687059037,617.1192191564,616.40143492871,613.93216235843,619.11186477572,618.59980788261,618.25572766964,613.07970989292,619.91987878934,620.54591460049,616.25040402158,616.40143492871,619.09580256086,619.09580256086,615.6530820497,615.6530820497,170997.59977028,0.0041494586958784,912.42018344079,-0.025554192310432,902.62147584237,-0.022901864406152,0
4.1588063240051e-05,795155149.46169,779602584.31996,797083182.48667,0.062463104089687,0.64760436919854,-0.22576307227148,1489990778.2757,2.478955434354e-06,1.2384033333625e-05,2.4302635775363e-06,1.0003359403949,488.95597442254,488.95597442254,496.18880836896,496.18880836896,488.9007574334,492.59533518278,495.09323832275,494.7732113992,488.17952391091,493.31414613795,496.49298275765,493.22122155268,495.39731530277,487.6373391738,493.91371011786,494.20703833526,491.81159990152,488.98354343479,491.80763561284,495.99296459982,495.34595622181,488.65633729023,492.10848072885,495.39731530277,496.55847943122,494.65732075594,489.27408953687,493.19639544263,493.74609267644,494.2276634632,488.09302771824,494.36662302741,496.22742327343,491.59734986746,490.87777409797,488.40711261661,493.58939180974,493.07745558542,492.73298808586,487.55459329464,494.3982932301,495.02495103789,490.72710001798,490.87777409797,493.57331028653,493.57331028653,490.12989695972,490.12989695972,4.2532219193852,0.0092040251927931,2.6494363803011e-05,0.023921906756133,0.0019349003137298,-23.899165725058,-1.8295445557673,-1.7275300690203e-05,0.0047775110628428,-0.1055086677494,-0.0016389802508723,0.0003368993620484,0.0017118601641539,49.795293681115,0.0059932867847154,0.0029229157277383,0.014409991272602,0.0014235397049702,-8.5661239713274,-0.56049480886898,-4.4872275537273e-05,-0.0012664840257018,-0.3406507558035,0.021004966016827,-0.00071500242007769,0.00035427740424254,0.0049634126219589,-31.711549977277,-3.2829160082173,0.00012619829224879,0.01316605491368,-0.014175149647126,-0.0012354386138544,0.031182564356163,0.0013305243256497,24.648110170143,0.0024573297797371,0.00037700882643186,0.24303849688919,41.899448167915,0.0073015098638902,0.0088240163141676,0.00093339478789527,-0.71990106213908,0.00039960821528822,8.1066078652089,-0.035837981183994,-0.26190369392633,614.47530629395,614.47530629395,621.70814024037,621.70814024037,614.42008930481,618.1146670542,620.61257019416,620.29254327061,613.69885578232,618.83347800936,622.01231462906,618.74055342409,620.91664717418,613.15667104521,619.43304198927,619.72637020667,617.33093177293,614.5028753062,617.32696748425,621.51229647123,620.86528809322,614.17566916164,617.62781260026,620.91664717418,622.07781130263,620.17665262735,614.79342140828,618.71572731404,619.26542454785,619.74699533461,613.61235958965,619.88595489882,621.74675514484,617.11668173887,616.39710596938,613.92644448802,619.10872368115,618.59678745683,618.25231995727,613.07392516605,619.91762510151,620.5442829093,616.24643188939,616.39710596938,619.09264215794,619.09264215794,615.64922883113,615.64922883113,402588.638788,0.0041497017996254,912.42107053502,-0.025558267560531,902.62154792377,-0.022907122318856,0
4.1592946052551e-05,795140882.134,779567868.77651,797064815.48951,0.062463104089687,0.64760436919854,-0.22576307227148,1490022177.1791,2.4791903242473e-06,1.2385489339822e-05,2.4308735638815e-06,1.0003364070825,488.94553832963,488.94553832963,496.18697191921,496.18697191921,488.88902781254,492.58721296858,495.08878432301,494.76801819001,488.16900105672,493.30875997899,496.49186514277,493.21663902246,495.39358073918,487.62382726246,493.90658872106,494.20098987307,491.80273166612,488.97233599567,491.79914331423,495.99003075464,495.34210371249,488.64621502465,492.10177100318,495.39358073918,496.55752884335,494.65431281298,489.26241247824,493.18848633599,493.7396726624,494.22122639975,488.08229917758,494.36225243548,496.22566365976,491.59074215394,490.86758094217,488.39413937601,493.58156859946,493.06988175996,492.72463606404,487.54148611748,494.39225132552,495.02015666759,490.71762018361,490.86758094217,493.5654486178,493.5654486178,490.12065316154,490.12065316154,4.249259177817,0.0091922945373456,2.6527726216616e-05,0.023827008615289,0.0019305804624224,-23.32190918701,-1.8205641664181,-1.7422802171305e-05,0.0047710506517442,-0.077434087348126,-0.0016405330403515,0.00033693543670138,0.0017162053261827,49.676826281632,0.0059886682519163,0.00291741324605,0.014212136171355,0.001425454899654,-8.5562946299172,-0.55767836065447,-4.4937279133161e-05,-0.0012509329552222,-0.26136911661042,0.020839665426383,-0.00071578453082197,0.00035391766535045,0.0049502415105412,-30.186940657385,-3.2455118126465,0.00012580192618915,0.013147649150642,-0.012157398145314,-0.001236896962643,0.031175922892541,0.0013279218683536,24.596668154347,0.0024550489327603,0.00037702364234802,0.24060024209288,41.812392427885,0.0072948882160639,0.0087794804660339,0.00092859297792543,-0.7168761543344,0.00039944361894082,8.0740215279188,-0.032196638792699,-0.26048966551404,614.46631792172,614.46631792172,621.7077515113,621.7077515113,614.40980740463,618.10799256067,620.6095639151,620.2887977821,613.68978064881,618.82953957108,622.01264473486,618.73741861455,620.91436033127,613.14460685455,619.42736831315,619.72176946515,617.32351125821,614.49311558776,617.31992290632,621.51081034673,620.86288330458,614.16699461674,617.62255059527,620.91436033127,622.07830843544,620.17509240506,614.78319207032,618.70926592808,619.26045225449,619.74200599184,613.60307876967,619.88303202757,621.74644325184,617.11152174603,616.38836053426,613.91491896809,619.10234819155,618.59066135205,618.24541565613,613.06226570957,619.91303091761,620.54093625967,616.2383997757,616.38836053426,619.08622820989,619.08622820989,615.64143275363,615.64143275363,98569.271892883,0.0041501880007915,912.42393221182,-0.025565093761968,902.62302315829,-0.022914863044986,0
4.1602711677551e-05,795112401.93695,779498555.31619,797028132.46473,0.062463104089687,0.64760436919854,-0.22576307227148,1490084689.9446,2.4797006622585e-06,1.2388401103868e-05,2.4320491440554e-06,1.0003373334676,488.92470473516,488.92470473516,496.18330676642,496.18330676642,488.86560992642,492.57099579515,495.0798937665,494.75764797505,488.14799360704,493.29801000087,496.48963710881,493.20749081252,495.38612699121,487.59685449042,493.89237301564,494.18891711891,491.78502504469,488.94996024838,491.78219802702,495.98417505261,495.33441116998,488.62600660729,492.0883786244,495.38612699121,496.55563398001,494.64830834556,489.2391004175,493.17269595316,493.72685717651,494.20837255823,488.06088180245,494.35352937987,496.22215371857,491.57755084356,490.84723298103,488.36824188445,493.56595145305,493.05476376455,492.70795931473,487.51532107461,494.3801906415,495.01058741224,490.69869377588,490.84723298103,493.5497521159,493.5497521159,490.10219921814,490.10219921814,4.2416456034809,0.0091679653794749,2.6601864562203e-05,0.023671416883284,0.0019221817370797,-23.068969187988,-1.8073758060271,-1.7664265719707e-05,0.0047581774060423,-0.057426005470097,-0.0016439423199365,0.00033702212453465,0.0017234982473628,49.4508302432,0.0059800388157294,0.0029000346035191,0.013901606454515,0.0014282335098106,-8.5421708755262,-0.55339460570986,-4.5061138849093e-05,-0.001223899488832,-0.20218167271902,0.020449001548957,-0.00071749500234246,0.00035327615332919,0.0049245345866717,-29.621758710366,-3.1949122154502,0.0001252094503929,0.013110408557341,-0.010673552461664,-0.0012401629376854,0.031163805985684,0.001322794350987,24.498127560021,0.00245084551927,0.0003763224200206,0.23690030560687,41.646090996593,0.0072824996987423,0.0086644965310737,0.00092018682840718,-0.713164748884,0.00039939922480636,8.0310234817262,-0.028517566541654,-0.25804524368445,614.44833699497,614.44833699497,621.70693902623,621.70693902623,614.38924218623,618.09462805496,620.60352602631,620.28128023486,613.67162586685,618.82164226068,622.01326936862,618.73112307234,620.90975925102,613.12048675023,619.41600527546,619.71254937872,617.3086573045,614.47359250819,617.30583028684,621.50780731242,620.8580434298,614.1496388671,617.61201088421,620.90975925102,622.07926623982,620.17194060537,614.76273267731,618.69632821297,619.25048943632,619.73200481804,613.58451406226,619.87716163968,621.74578597838,617.10118310337,616.37086524084,613.89187414426,619.08958371287,618.57839602436,618.23159157454,613.03895333442,619.90382290132,620.53421967205,616.22232603569,616.37086524084,619.07338437571,619.07338437571,615.62583147795,615.62583147795,37928.337364344,0.0041511603965505,912.43115635994,-0.025577800691049,902.62764231252,-0.022928446342316,0
4.1622242927551e-05,795055635.77574,779360321.96067,796954909.31668,0.062463104089687,0.64760436919854,-0.22576307227148,1490208407.7503,2.482488408912e-06,1.2394224276828e-05,2.4343344058262e-06,1.0003391717591,488.88318111145,488.88318111145,496.17599868885,496.17599868885,488.81891761754,492.53862715706,495.06217206899,494.73695302415,488.10611419608,493.27656029339,496.48520051103,493.18925313633,495.37125929915,487.54310028547,493.86401190045,494.16485706546,491.74971458425,488.90533819903,491.74840524568,495.97250185954,495.31906149096,488.58571113756,492.0616599429,495.37125929915,496.55186186053,494.63633666158,489.19262692117,493.14118118095,493.70131323349,494.18272119644,488.01819220036,494.33612276385,496.21515836575,491.5512554705,490.80667829442,488.31662997483,493.53479439755,493.02463608709,492.67469310217,487.46317584081,494.35612889529,494.99151313175,490.66096100845,490.80667829442,493.5184322429,493.5184322429,490.06538893726,490.06538893726,4.2274862799927,0.0091194970076053,2.675232156961e-05,0.023438655764988,0.001906139800918,-22.901616390304,-1.7911729110115,-1.8067485776156e-05,0.004732871468649,-0.040827368472984,-0.0016508821843827,0.00033723049932239,0.0017359130099012,49.036797350392,0.0059641322520309,0.0028677220504664,0.013498537737956,0.0014320999698891,-8.5274434022575,-0.54779588045875,-4.5298445901109e-05,-0.0011828388807554,-0.14979287128145,0.019742887001105,-0.00072095879370929,0.00035217649192957,0.0048753251803106,-29.332401718554,-3.1410599982963,0.00012432864698889,0.013037125147439,-0.0093738374129146,-0.0012469202885786,0.031142789478199,0.0013129192186541,24.316582009612,0.0024433787356835,0.00037479464816317,0.23229452485373,41.340585848631,0.0072595711610641,0.0084570951314863,0.00090842348761313,-0.71046677058882,0.00039962929442566,7.9889175875233,-0.024177789449921,-0.25427746927555,614.41246690314,614.41246690314,621.70528448054,621.70528448054,614.34820340924,618.06791294876,620.59145786069,620.26623881585,613.63539998778,618.80584608509,622.01448630272,618.71853892803,620.90054509084,613.07238607717,619.39329769215,619.69414285716,617.27900037595,614.43462399073,617.27769103738,621.50178765124,620.84834728266,614.11499692926,617.5909457346,620.90054509084,622.08114765223,620.16562245327,614.72191271287,618.67046697265,619.23059902519,619.71200698814,613.54747799206,619.86540855555,621.74444415745,617.0805412622,616.33596408612,613.84591576652,619.06408018924,618.55392187879,618.20397889387,612.99246163251,619.88541468699,620.52079892345,616.19024680014,616.33596408612,619.0477180346,619.0477180346,615.59467472896,615.59467472896,19004.188515896,0.0041531051756541,912.44911302354,-0.025602127341074,902.64055153034,-0.022953537036362,0
4.1661305427551e-05,794942296.38692,779083427.45959,796807029.62948,0.062463104089687,0.64760436919854,-0.22576307227148,1490450348.0881,2.4880046705519e-06,1.2405870142256e-05,2.4388053077463e-06,1.0003428159051,488.80049865227,488.80049865227,496.16112871751,496.16112871751,488.7255724137,492.47319560985,495.02661306402,494.6950639354,488.02253533996,493.23268872421,496.47610276034,493.15274272708,495.34105665307,487.4361457747,493.80637465565,494.11677095002,491.67899893352,488.8159167958,491.67760875542,495.94894766983,495.28797077059,488.50506360655,492.00720508869,495.34105665307,496.54411215262,494.61224347611,489.0998722046,493.07737546677,493.65023983065,494.13079860051,487.93314366073,494.30049902742,496.20088746259,491.49877061641,490.72585366067,488.21390846152,493.4714722933,492.96454968999,492.60780954241,487.35942251514,494.30725675616,494.9532314416,490.58562264953,490.72585366067,493.45494130778,493.45494130778,489.99110639443,489.99110639443,4.2026835372971,0.0090264433501658,2.7043341345644e-05,0.02319970750129,0.001876508562148,-22.826171882206,-1.7890157459786,-1.8777225463443e-05,0.0046840330116562,-0.038148551646772,-0.0016642755631237,0.00033773631303012,0.0017573820899036,48.330684685797,0.0059355720991057,0.0028158600397923,0.013089688084374,0.0014365970752659,-8.5277353923275,-0.54744312519087,-4.5758728608429e-05,-0.0011333820842738,-0.15862051153552,0.018721676998396,-0.00072763999970429,0.0003502965100732,0.0047843614612622,-29.269440424155,-3.1077775892359,0.00012294160061963,0.012897305560466,-0.0084459605924519,-0.0012600852591415,0.031110221642401,0.0012945971471904,24.004247241471,0.0024308153279279,0.00037201220028922,0.22927461551725,40.817160638265,0.007218025147085,0.0081408627623973,0.00089361816981071,-0.7128727586575,0.00040009746878254,8.0181915684623,-0.019912556680319,-0.24942036118849,614.34135056582,614.34135056582,621.70198063106,621.70198063106,614.26642432725,618.0140475234,620.56746497758,620.23591584895,613.56338725351,618.77354063776,622.01695467389,618.69359464064,620.88190856663,612.97699768826,619.3472265692,619.65762286358,617.21985084708,614.35676870935,617.21846066897,621.48979958339,620.82882268414,614.0459155201,617.54805700225,620.88190856663,622.08496406617,620.15309538966,614.64072411815,618.61822738033,619.1910917442,619.67165051406,613.47399557428,619.84135094098,621.74173937614,617.03962252997,616.26670557422,613.75476037507,619.01232420686,618.50540160354,618.14866145596,612.90027442869,619.84810866971,620.49408335515,616.12647456308,616.26670557422,618.99579322133,618.99579322133,615.53195830799,615.53195830799,10942.752896908,0.0041569947083795,912.49331903486,-0.025649635147948,902.67509248257,-0.023000683200707,0
4.1739430427551e-05,794716901.56338,778527436.4386,796502779.03636,0.062463104089687,0.64760436919854,-0.22576307227148,1490913289.6102,2.4990031190862e-06,1.2429162894847e-05,2.4478616880925e-06,1.0003500727724,488.636427446,488.636427446,496.13013236848,496.13013236848,488.53862226689,492.33522581688,494.95420364929,494.60767202688,487.85642900194,493.14279706646,496.45748917057,493.07951755796,495.27931413036,487.22413111821,493.6871331777,494.02064177737,491.5359378597,488.63619834859,491.5346194827,495.90040048389,495.22320579137,488.34398958074,491.89618164143,495.27931413036,496.52807018783,494.56337540304,488.91460042182,492.94044512392,493.54732124248,494.02216211053,487.76456491894,494.2272233703,496.17181601498,491.39414293263,490.56480331472,488.01009963914,493.33961645898,492.84474791738,492.47077175137,487.15379550358,494.20665692766,494.87625967848,490.43469108091,490.56480331472,493.32143034913,493.32143034913,489.84073657257,489.84073657257,4.1631875252,0.0088626974553608,2.750524097643e-05,0.022517231425662,0.0018244980802788,-22.976999917392,-1.9269564066869,-2.0472073012612e-05,0.0045925153787754,-0.023561989827422,-0.001685843921635,0.00033892731049449,0.0018059143780701,47.253264794234,0.0058841163151644,0.0027693049384598,0.012940460268346,0.0014366595523197,-8.6234698111843,-0.53763956970069,-4.6724831742182e-05,-0.0011138522589455,-0.10301273087941,0.019547569884357,-0.00073847733425065,0.0003472843175116,0.004624856572354,-30.305924910248,-3.1473398975514,0.00011930216219916,0.012646598144587,-0.0098770203488841,-0.0012810093708975,0.031069261682826,0.0012625948598113,23.520776730528,0.0024092040472725,0.00037184420057756,0.22669789675777,40.01321138234,0.0071404484826083,0.0078617473697487,0.0009035197440721,-0.72660728456173,0.00040106733840028,8.15226690136,-0.018235062885949,-0.2473000999553,614.20111729003,614.20111729003,621.69482221252,621.69482221252,614.10331211092,617.89991566092,620.51889349333,620.17236187091,613.42111884597,618.70748691049,622.0221790146,618.64420740199,620.84400397439,612.78882096225,619.25182302173,619.5853316214,617.10062770373,614.20088819263,617.09930932673,621.46509032792,620.7878956354,613.90867942477,617.46087148547,620.84400397439,622.09276003187,620.12806524707,614.47929026585,618.50513496795,619.11201108651,619.58685195456,613.32925476298,619.79191321433,621.73650585901,616.95883277666,616.12949315875,613.57478948318,618.90430630301,618.40943776141,618.03546159541,612.71848534761,619.7713467717,620.44094952252,615.99938092494,616.12949315875,618.88612019317,618.88612019317,615.4054264166,615.4054264166,12788.907044115,0.0041647737607785,912.59376551884,-0.025745249668203,902.75568473212,-0.023099018930831,0
4.1758961677551e-05,794661903.00917,778391919.68679,796429291.84267,0.062463104089687,0.64760436919854,-0.22576307227148,1491021445.4346,2.5016209680363e-06,1.2434985942187e-05,2.4500379929919e-06,1.000351912414,488.59631640634,488.59631640634,496.12281948912,496.12281948912,488.49302385745,492.30255703921,494.93673093168,494.58688961364,487.81577186024,493.12122078424,496.45310691543,493.06174479003,495.26448327848,487.17228120348,493.65872175051,493.99728057021,491.50131683016,488.59242633064,491.50081812547,495.88881477272,495.20779860485,488.30463220614,491.86944906723,495.26448327848,496.5243364904,494.55161423962,488.86938345264,492.90856149523,493.52234368817,493.99639752114,487.72328657433,494.2096693042,496.16487980154,491.36863682937,490.5255106038,487.96027337688,493.30836981999,492.81557225962,492.43785803033,487.10350245435,494.18258034061,494.85761824476,490.39797395722,490.5255106038,493.28996649946,493.28996649946,489.80428978946,489.80428978946,4.2125217885512,0.0088681751126764,2.7703078203861e-05,0.022584574080128,0.0018144206965938,-23.197517123021,-1.8652481634897,-2.100755060323e-05,0.0046121134134766,-0.02251162202513,-0.0017025393924931,0.00034022825298521,0.0018005083683146,48.476341661292,0.0058835748523798,0.002770127244424,0.013029245224998,0.0014387295957175,-8.7080045050134,-0.53641338755434,-4.710674177786e-05,-0.0011173473774726,-0.10015895746621,0.019333575756314,-0.0007453377802818,0.00034772986269217,0.0045944876710965,-30.052360786383,-3.1187388255963,0.00011825976412681,0.012671015614116,-0.0098988090115946,-0.0013087914208131,0.031223419961011,0.0012571975845764,24.031382767495,0.0024078626669068,0.00037277147097415,0.22823271335367,40.947689840332,0.007136405313224,0.0078275908090794,0.00090939326862921,-0.72338609786653,0.00040130306159282,8.1677424145073,-0.01706772493241,-0.24935600229553,614.1665687906,614.1665687906,621.69307187339,621.69307187339,614.06327624172,617.87280942348,620.50698331595,620.1571419979,613.3860242445,618.6914731685,622.0233592997,618.6319971743,620.83473566275,612.74253358775,619.22897413478,619.56753295448,617.07156921442,614.16267871491,617.07107050973,621.45906715699,620.77805098911,613.87488459041,617.43970145149,620.83473566275,622.09458887467,620.12186662388,614.4396358369,618.4788138795,619.09259607243,619.56664990541,613.2935389586,619.77992168847,621.73513218581,616.93888921363,616.09576298806,613.53052576114,618.87862220425,618.38582464389,618.00811041459,612.67375483862,619.75283272488,620.42787062903,615.96822634148,616.09576298806,618.86021888373,618.86021888373,615.37454217373,615.37454217373,51984.734809934,0.0041667185013425,912.61229258741,-0.025769519939057,902.76909905958,-0.023123356784404,0
4.1798024177551e-05,794549884.76019,778116586.42315,796280931.44393,0.062463104089687,0.64760436919854,-0.22576307227148,1491232936.7098,2.5069475588828e-06,1.2446631502004e-05,2.4545991158394e-06,1.0003555644568,488.51447187,488.51447187,496.10812359939,496.10812359939,488.40028232946,492.2365885658,494.90152957926,494.54492055441,487.73291817835,493.07761249614,496.44430950848,493.02560290698,495.23449400256,487.0664323701,493.60125944203,493.94979433385,491.43094726787,488.50347904316,491.43247173778,495.86551950625,495.17671326896,488.22455066471,491.81535388952,495.23449400256,496.51687073607,494.52777286688,488.77735854801,492.84425581545,493.47178626703,493.94434505613,487.63907862148,494.17421860213,496.15089312782,491.31667726025,490.44551906098,487.85861460506,493.24519826741,492.75621615461,492.37110521432,487.00081754157,494.13387750988,494.81978275713,490.3232023152,490.44551906098,493.22640703853,493.22640703853,489.73037256538,489.73037256538,4.1913773647575,0.0087806548075447,2.7970654590345e-05,0.022408716929779,0.0017888668517258,-23.24941007011,-1.7985750555183,-2.1732941961303e-05,0.0045655212322898,-0.017866859146897,-0.0017145319567626,0.00034081683509451,0.0018163438245907,47.883591880134,0.0058584432613453,0.0027490952899711,0.012859982137162,0.0014377337965082,-8.7178349240513,-0.53365032847422,-4.7568672408164e-05,-0.0010980592861863,-0.079476474959652,0.018180141004818,-0.00075140126527711,0.00034640094839714,0.0045163839417286,-29.977548503289,-3.0882342831125,0.00011687633294288,0.012540887516519,-0.0090746902525478,-0.0013208913941946,0.031199095224679,0.0012410876281488,23.770689030342,0.0023979160839748,0.00037230724376075,0.22663766808526,40.506460373372,0.007099002787791,0.0076424720556964,0.00090297862386087,-0.72864026030564,0.00040079908325041,8.1525007797248,-0.014467313084042,-0.24650769841487,614.09593342077,614.09593342077,621.68958515016,621.68958515016,613.98174388023,617.81805011657,620.48299113003,620.12638210518,613.31437972912,618.65907404691,622.02577105925,618.60706445775,620.81595555333,612.64789392087,619.1827209928,619.53125588462,617.01240881864,614.08494059393,617.01393328855,621.44698105702,620.75817481973,613.80601221548,617.39681544029,620.81595555333,622.09833228684,620.10923441765,614.35882009878,618.42571736622,619.0532478178,619.5258066069,613.22054017226,619.7556801529,621.73235467859,616.89813881102,616.02698061175,613.44007615583,618.82665981818,618.33767770538,617.9525667651,612.58227909234,619.71533906065,620.40124430791,615.90466386597,616.02698061175,618.8078685893,618.8078685893,615.31183411616,615.31183411616,22032.557707687,0.0041706079553275,912.65653111338,-0.025816364575651,902.80316781391,-0.023169412361331,0
4.1876149177551e-05,794327128.62225,777565613.68418,795980818.47574,0.062463104089687,0.64760436919854,-0.22576307227148,1491639690.9082,2.5174806633066e-06,1.2469922097438e-05,2.4629784816607e-06,1.0003628181654,488.35199749726,488.35199749726,496.07835510423,496.07835510423,488.21542609271,492.10208362726,494.83133692421,494.45951477244,487.56824542368,492.98893796075,496.42662364795,492.95342269788,495.17370735578,486.85657598671,493.48432331765,493.85532875292,491.28977984683,488.32572109505,491.29372082028,495.81880591326,495.11352192457,488.06489361294,491.70580814793,495.17370735578,496.50186438503,494.47990638083,488.5943152319,492.71286332703,493.37124807494,493.83833945701,487.47199967074,494.10195031999,496.12267442311,491.21323970866,490.2867861341,487.65705145645,493.11653787485,492.63840985533,492.23637458457,486.79719519184,494.0348822428,494.74414154937,490.17397413397,490.2867861341,493.09689148102,493.09689148102,489.58177958548,489.58177958548,4.1579467166638,0.0086193780080233,2.8467293391135e-05,0.022097197550426,0.0017434974712547,-23.455915918358,-1.7754384121009,-2.3107557496102e-05,0.0044788124308697,-0.014680105535161,-0.0017369660194096,0.00034217392967774,0.0018406940593618,46.986846969859,0.005815503325001,0.0027283581113745,0.012749744926644,0.0014329481083551,-8.7708174987133,-0.53089671313141,-4.8505071160455e-05,-0.0010887990186503,-0.058153823146288,0.017843817187667,-0.0007627613363814,0.00034418803817203,0.0043779266785273,-30.295566314243,-3.0773517747752,0.00011457380120646,0.01230140937058,-0.011696106663036,-0.0013440532265669,0.031173305603151,0.0012123674233576,23.367866654634,0.0023815584559064,0.00037400453903677,0.22698736409294,39.835306663068,0.0070346301826313,0.0073756644223011,0.00089955668446634,-0.74096463345827,0.00040010868771103,8.2747513899284,-0.011326325477715,-0.24383072541622,613.95588227153,613.95588227153,621.6822398785,621.6822398785,613.81931086698,617.70596840153,620.43522169848,620.06339954671,613.17213019795,618.59282273502,622.03050842222,618.55730747214,620.77759213005,612.46046076097,619.08820809191,619.45921352718,616.89366462109,613.92960586932,616.89760559454,621.42269068753,620.71740669884,613.6687783872,617.3096929222,620.77759213005,622.10574915929,620.08379115509,614.19820000616,618.31674810129,618.9751328492,619.44222423127,613.075884445,619.70583509426,621.72655919737,616.81712448293,615.89067090837,613.26093623071,618.72042264912,618.2422946296,617.84025935884,612.40107996611,619.63876701706,620.34802632364,615.77785890823,615.89067090837,618.70077625529,618.70077625529,615.18566435974,615.18566435974,7419.3360076963,0.0041783868090612,912.75989119134,-0.025907718732717,902.88612417724,-0.023258053485295,0
4.1915211677551e-05,794217495.77774,777293531.46648,795831404.57067,0.062463104089687,0.64760436919854,-0.22576307227148,1491829079.212,2.52277234098e-06,1.248156756734e-05,2.4671893483387e-06,1.0003664891566,488.27207527211,488.27207527211,496.06361956873,496.06361956873,488.12406756127,492.03533446896,494.79664314672,494.41720195137,487.48701239554,492.94489299229,496.41790978861,492.91787960533,495.14363391188,486.75333443179,493.42647615442,493.80881779384,491.22020059287,488.23776565557,491.2248358328,495.79568383198,495.08220644361,487.98598403035,491.65141656347,495.14363391188,496.4944714751,494.45630833862,488.50395608353,492.64772605565,493.32161538639,493.78584744269,487.3897085795,494.06606910636,496.10874097259,491.1623334881,490.2085587286,487.55784428925,493.05290123075,492.5804083528,492.16987525706,486.69704225888,493.9858998949,494.70686775881,490.10050764593,490.2085587286,493.0328154234,493.0328154234,489.50810963866,489.50810963866,4.1896201726978,0.0085765263494504,2.87786463364e-05,0.022063829790385,0.0017233728918356,-23.715284860645,-1.7781069774749,-2.3949169001111e-05,0.0044697715555532,-0.01323401124903,-0.0017576726841343,0.00034370869022072,0.0018388606337397,47.700743654892,0.0058037762400059,0.0027369111026691,0.012802602801257,0.0014309404665365,-8.8621504683149,-0.53210547105369,-4.9094588157939e-05,-0.0010961677938643,-0.052573320939121,0.016880348838191,-0.00077187639956624,0.00034397716575906,0.0043170049629269,-30.607469850709,-3.0860808045076,0.00011307213102022,0.012252733568937,-0.010748707477917,-0.0013744360539532,0.031298882955822,0.0012002077373726,23.661715377982,0.0023769171687277,0.00037581020280499,0.22807781955013,40.391126909135,0.0070145168095634,0.0073506877348252,0.00090231519385668,-0.74207494546945,0.00039965841300136,8.338979683059,-0.010385855243239,-0.24500437765479,613.8869698491,613.8869698491,621.67851414573,621.67851414573,613.73896213826,617.65022904595,620.41153772371,620.03209652837,613.10190697253,618.55978756928,622.0328043656,618.53277418232,620.75852848887,612.36822900879,619.04137073141,619.42371237084,616.83509516986,613.85266023256,616.83973040979,621.41057840897,620.6971010206,613.60087860734,617.26631114047,620.75852848887,622.10936605209,620.07120291561,614.11885066052,618.26262063265,618.93650996339,619.40074201968,613.0046031565,619.68096368335,621.72363554959,616.77722806509,615.8234533056,613.17273886624,618.66779580775,618.1953029298,617.78476983406,612.31193683587,619.60079447189,620.32176233581,615.71540222292,615.8234533056,618.64771000039,618.64771000039,615.12300421565,615.12300421565,7803.1045985501,0.0041822762025071,912.80078649526,-0.025954387899324,902.91662541794,-0.02330315280787,0
4.1993336677551e-05,793994969.07569,776738696.03855,795525303.90732,0.062463104089687,0.64760436919854,-0.22576307227148,1492194065.7211,2.5329362822493e-06,1.2504858637338e-05,2.4758145920434e-06,1.0003738033726,488.10992045305,488.10992045305,496.03333825866,496.03333825866,487.93847514889,491.89623898008,494.72620554689,494.32960859875,487.32222862729,492.85369724285,496.40006787697,492.84546127643,495.08153164623,486.54407692909,493.30614771198,493.71438027947,491.07774524301,488.05871577497,491.08225066431,495.74856960661,495.01754490745,487.82559854308,491.53926579212,495.08153164623,496.47936100962,494.40804763663,488.32066954287,492.51141557336,493.22102095623,493.67688560087,487.2229108966,493.99159228785,496.08010692555,491.05885436758,490.05012252154,487.35683294798,492.92024156651,492.46288673192,492.03288774503,486.49398290078,493.88428773681,494.63084713364,489.95078556785,490.05012252154,492.89924385951,492.89924385951,489.35733126499,489.35733126499,4.1585917535249,0.0084253055579539,2.9211359056901e-05,0.021777626637044,0.001682299894885,-23.960406530834,-1.7737321522125,-2.5372185110706e-05,0.0043865084052419,-0.014398446140931,-0.0017774183283126,0.00034510027289528,0.001859105635556,46.87914182304,0.0057636241944863,0.0027938931272332,0.012924435796695,0.0014233365607636,-8.9274589437645,-0.53021278400001,-5.005158832843e-05,-0.0011037054219877,-0.042284360770464,0.014863174624402,-0.0007819340567716,0.00034202842175334,0.0041923234020899,-31.232594506703,-3.089083065237,0.00011092616092579,0.012027658152747,-0.014093756161885,-0.0013952697386286,0.031276288693234,0.0011739810706166,23.293604065296,0.0023621628118553,0.00038475671462428,0.22919104452552,39.775008594248,0.0069543632438958,0.0073685298486559,0.00091464153000033,-0.75575460051403,0.00039911095852121,8.4907262667212,-0.0086212412094009,-0.24377138946579,613.74766821355,613.74766821355,621.67108601916,621.67108601916,613.57622290939,617.53398674058,620.36395330739,619.96735635925,612.95997638779,618.49144500335,622.03781563747,618.48320903693,620.71927940673,612.18182468959,618.94389547248,619.35212803997,616.71549300351,613.69646353547,616.71999842481,621.38631736711,620.65529266795,613.46334630359,617.17701355262,620.71927940673,622.11710877012,620.04579539713,613.95841730337,618.14916333386,618.85876871673,619.31463336138,612.8606586571,619.62934004835,621.71785468605,616.69660212808,615.68787028204,612.99458070848,618.55798932701,618.10063449242,617.67063550553,612.13173066128,619.52203549731,620.26859489414,615.58853332835,615.68787028204,618.53699162001,618.53699162001,614.99507902549,614.99507902549,5696.0380003714,0.0041900549692398,912.89250254022,-0.026043429541614,902.98708872363,-0.023388471866551,0
4.2071461677551e-05,793775330.70865,776188270.72987,795218474.7741,0.062463104089687,0.64760436919854,-0.22576307227148,1492538252.7242,2.5432392895355e-06,1.25281509331e-05,2.4848803343389e-06,1.0003811884817,487.95000599886,487.95000599886,496.00308632297,496.00308632297,487.75445998157,491.75473720504,494.65634175006,494.24173013914,487.15927469948,492.76201221367,496.38235667336,492.77382060102,495.01945268747,486.33777644744,493.18502390127,493.62111770281,490.93637765087,487.88081133708,490.93861615104,495.70168660279,494.9527559647,487.66655009102,491.42676043408,495.01945268747,496.46436440544,494.36015877897,488.13926753501,492.3701738296,493.12146573579,493.56735223146,487.05828212788,493.91668363994,496.05159424488,490.95666212785,489.89368067358,487.15859356949,492.78600213575,492.34693551107,491.89628205749,486.29381282866,493.78236160497,494.55556433314,489.80271087621,489.89368067358,492.76403754945,492.76403754945,489.20684203103,489.20684203103,4.1620968477799,0.0083115020691768,2.9583336239584e-05,0.021582986540565,0.0016451707913547,-24.277554580168,-1.7766319583895,-2.7151921804709e-05,0.0043289367050443,-0.0081229141476083,-0.0018007244395491,0.00034709484665807,0.0018721991542775,46.893768230887,0.0057311458290732,0.0030167964404028,0.013565199476226,0.0014159686048135,-9.0414739078513,-0.53015058969185,-5.1159500371279e-05,-0.0011239382429422,-0.033761148098775,0.013470730623711,-0.00079266965996598,0.00034082822688094,0.0040802170877904,-32.537603643622,-3.1047128334505,0.00010837947610559,0.011863416353936,-0.0043528755913624,-0.001426233193498,0.031351166741842,0.0011507776814246,23.281359280743,0.0023497639210643,0.00041031236475204,0.23414850609417,39.799787218053,0.0069043286857236,0.0081648992586965,0.00096621691604882,-0.76600623588234,0.00039926614801779,8.5504678720982,-0.0073483416121656,-0.24446601505782,613.61140627455,613.61140627455,621.66448659866,621.66448659866,613.41586025726,617.41613748073,620.31774202575,619.90313041483,612.82067497517,618.42341248936,622.04375694905,618.43522087671,620.68085296316,611.99917672313,618.84642417696,619.2825179785,616.59777792656,613.54221161277,616.60001642673,621.36308687848,620.61415624039,613.32795036671,617.08816070977,620.68085296316,622.12576468113,620.02155905466,613.8006678107,618.03157410529,618.78286601148,619.22875250715,612.71968240357,619.57808391563,621.71299452058,616.61806240354,615.55508094927,612.81999384518,618.44740241144,618.00833578676,617.55768233318,611.95521310435,619.44376188066,620.21696460883,615.4641111519,615.55508094927,618.42543782514,618.42543782514,614.86824230672,614.86824230672,16061.758571028,0.0041978337289259,912.97157524398,-0.026129217777308,903.04219339635,-0.023470136279144,0
4.2090992927551e-05,793720634.18666,776051180.01211,795141825.77558,0.062463104089687,0.64760436919854,-0.22576307227148,1492620375.8374,2.5456973781557e-06,1.2533973371165e-05,2.4870708050803e-06,1.0003830532298,487.9101478976,487.9101478976,495.99557676925,495.99557676925,487.70851973606,491.72032150186,494.63891105827,494.22000696748,487.11860131735,492.73933069072,496.37797455261,492.75600130056,495.00408825386,486.28631586699,493.15535194887,493.59789315062,490.90128835293,487.83641992781,490.90322126132,495.69000318904,494.93669736471,487.62685308132,491.39886685856,495.00408825386,496.46065275177,494.34826366987,488.09397363607,492.3365394185,493.096616375,493.54039035118,487.01720589325,493.89817457008,496.04453264826,490.93121761749,489.85463373094,487.10913225003,492.75334250227,492.31802676174,491.86251207809,486.24389368485,493.75725876195,494.53685149141,489.76587408276,489.85463373094,492.73112753191,492.73112753191,489.16937861627,489.16937861627,4.2099606332483,0.0083169307858916,2.9774149656745e-05,0.021610813192953,0.0016297533203824,-24.52851882468,-1.7831343719014,-2.7676809886352e-05,0.0043393618370764,-0.0077098785319568,-0.0018173907540818,0.00034847996749292,0.0018697117872375,47.956541661245,0.0057064519791058,0.0030385955213724,0.013705423265011,0.0014138451029209,-9.1285796306934,-0.53196342183831,-5.1479345004783e-05,-0.0011369586854283,-0.032815830589532,0.013671535284468,-0.00079942933421348,0.00034066613242148,0.0040218562796305,-32.020069754869,-3.1154778010934,0.00010719346546517,0.011883354665611,-0.0041635034167414,-0.0014537239864385,0.031518696491865,0.0011522423607866,23.72968702476,0.0023425907450141,0.0004135935802647,0.23627927978415,40.619296870649,0.0068669901206909,0.008272844886741,0.00097328960906956,-0.76276206546891,0.00039749222259084,8.6157691105264,-0.0071949442473479,-0.2462196838772,613.57715476687,613.57715476687,621.66258363852,621.66258363852,613.37552660533,617.38732837113,620.30591792754,619.88701383674,612.78560818661,618.40633755998,622.04498142188,618.42300816983,620.67109512312,611.95332273626,618.82235881814,619.26490001989,616.5682952222,613.50342679707,616.57022813059,621.3570100583,620.60370423398,613.29385995059,617.06587372783,620.67109512312,622.12765962104,620.01527053914,613.76098050534,618.00354628777,618.76362324427,619.20739722045,612.68421276252,619.56518143934,621.71153951753,616.59822448675,615.5216406002,612.7761391193,618.42034937154,617.98503363101,617.52951894736,611.91090055412,619.42426563122,620.20385836068,615.43288095203,615.5216406002,618.39813440118,618.39813440118,614.83638548554,614.83638548554,33201.837072752,0.0041997777516941,912.98598528568,-0.02616007965022,903.05105789368,-0.023497071730248,0
4.2130055427551e-05,793609210.53146,775772487.8575,794986729.33846,0.062463104089687,0.64760436919854,-0.22576307227148,1492782131.2572,2.5507376094785e-06,1.2545619015306e-05,2.4911861313458e-06,1.0003867735698,487.82885793836,487.82885793836,495.98039159165,495.98039159165,487.61505920039,491.65062826804,494.60352213269,494.1760060785,487.03574961408,492.69340613873,496.36911677685,492.71974061648,494.97295365842,486.1813219751,493.09520513536,493.5506226531,490.82991243569,487.74618139779,490.83151285734,495.66633066083,494.90418273952,487.54608932875,491.34234359636,494.97295365842,496.45315937617,494.32410441717,488.00176728154,492.26846218077,493.04608849067,493.48576425894,486.93345934849,493.86071517196,496.03023778354,490.87938141361,489.77509063941,487.00825429279,492.68713792881,492.25914705021,491.79391987945,486.14203728034,493.70637641462,494.49881217036,489.6908458204,489.77509063941,492.66442898535,492.66442898535,489.0933410673,489.0933410673,4.19401337397,0.0082392023320564,3.000539468985e-05,0.021479410060174,0.0016104045216421,-24.640234046535,-1.7832898734221,-2.8454690250272e-05,0.0042975789647991,-0.0071035619497339,-0.0018272301196998,0.00034914132120159,0.0018764167294223,47.543985668935,0.0056864435174615,0.0030188681188663,0.013625138844242,0.0014087876667828,-9.1625744537324,-0.53126994456837,-5.1955538164502e-05,-0.0011442964737628,-0.030373787533462,0.013513014624039,-0.00080458156406499,0.00033976216122303,0.0039631840384587,-31.967704220002,-3.1170332431336,0.00010579060016263,0.011770295559398,-0.0039901313686315,-0.0014640213310636,0.03150222032118,0.0011392594925258,23.546526757624,0.0023358146946686,0.00041217002570749,0.23662587964499,40.310269456114,0.0068370648219277,0.0081924184957167,0.00096461933227508,-0.76991455747255,0.00039622921927147,8.6488269201745,-0.0067251578400417,-0.24595930195289,613.50724865248,613.50724865248,621.65878230578,621.65878230578,613.29344991452,617.32901898216,620.28191284681,619.85439679262,612.7141403282,618.37179685285,622.04750749098,618.3981313306,620.65134437254,611.85971268922,618.77359584948,619.22901336722,616.50830314981,613.42457211191,616.50990357146,621.34472137496,620.58257345364,613.22448004287,617.02073431049,620.65134437254,622.13155009029,620.0024951313,613.68015799567,617.9468528949,618.7244792048,619.16415497307,612.61185006262,619.53910588609,621.70862849766,616.55777212773,615.45348135354,612.68664500691,618.36552864294,617.93753776433,617.47231059358,611.82042799447,619.38476712874,620.17720288449,615.36923653453,615.45348135354,618.34281969948,618.34281969948,614.77173178143,614.77173178143,9347.3883217573,0.0042036670447852,913.01721473356,-0.026206824350703,903.07132726955,-0.023541683468132,0
4.2208180427551e-05,793387708.89084,775216772.08831,794675648.75669,0.062463104089687,0.64760436919854,-0.22576307227148,1493097022.7242,2.5607102377058e-06,1.2568909952896e-05,2.4993342187375e-06,1.0003941830749,487.66730527265,487.66730527265,495.9499673753,495.9499673753,487.42881415777,491.51062771049,494.53297506539,494.0877232005,486.87089027778,492.60119871628,496.35143141817,492.64753965154,494.91057938816,485.97269264056,492.97457305929,493.45660179997,490.68754201089,487.56615294303,490.68763447697,495.61904032372,494.83895896481,487.38514186828,491.22900731353,494.91057938816,496.43819781518,494.27590309724,487.81819917031,492.13167492132,492.94549788834,493.37615606345,486.76698256543,493.78545902661,496.00165235467,490.77628062821,489.61693076824,486.80777771693,492.55432996949,492.14211300934,491.65679407743,485.93964993606,493.60435423026,494.42301848673,489.54147099998,489.61693076824,492.53060620815,492.53060620815,488.94128379221,488.94128379221,4.1677342170312,0.0080923689904058,3.0471591221214e-05,0.021244366326585,0.0015753781490254,-24.872924618674,-1.7848855594488,-2.9964763063328e-05,0.0042191605926105,-0.0063759066454528,-0.0018467174528808,0.0003505926759171,0.0018850880924078,46.884267417082,0.0056517830711576,0.0029721255287407,0.013466300518965,0.0013990608283103,-9.2348218095038,-0.53030792786219,-5.2921006724146e-05,-0.0011612200324689,-0.026889983648712,0.013151627326422,-0.00081487577206855,0.00033828278300188,0.0038574595271753,-32.216489622228,-3.1227337259252,0.00010318036478125,0.011558246704738,-0.0038453594144857,-0.0014845055672663,0.031485978553597,0.0011158173547453,23.246830348264,0.0023244334150156,0.00040865330953356,0.23747956813248,39.814583619334,0.006784592838847,0.0080002580932675,0.00094601813848039,-0.78383923584795,0.00039384077625802,8.735768168836,-0.0059960748866504,-0.24589314175895,613.36834908719,613.36834908719,621.65101118985,621.65101118985,613.12985797231,617.21167152503,620.23401887993,619.78876701504,612.57193409233,618.30224253082,622.05247523271,618.34858346608,620.6116232027,611.6737364551,618.67561687383,619.15764561451,616.38858582543,613.26719675757,616.38867829151,621.32008413826,620.54000277935,613.08618568282,616.93005112807,620.6116232027,622.13924162972,619.97694691178,613.51924298485,617.83271873586,618.64654170288,619.07719987799,612.46802637997,619.48650284115,621.70269616921,616.47732444275,615.31797458278,612.50882153147,618.25537378403,617.84315682388,617.35783789197,611.6406937506,619.3053980448,620.12406230128,615.24251481452,615.31797458278,618.2316500227,618.2316500227,614.64232760675,614.64232760675,4607.0790745932,0.0042114455741052,913.0887571361,-0.026299963940124,903.12130408258,-0.023629904107437,0
4.2364430427551e-05,792949171.98086,774110316.41135,794049646.24416,0.062463104089687,0.64760436919854,-0.22576307227148,1493695597.9942,2.5814862686942e-06,1.2615491442321e-05,2.5154705185506e-06,1.0004089497518,487.34755093079,487.34755093079,495.88886660804,495.88886660804,487.05836838403,491.22806256444,494.39258666864,493.90993824248,486.54386579741,492.41527665783,496.31614344687,492.50415381419,494.78531965543,485.55984239773,492.7318031697,493.27026017085,490.40387124605,487.20733361919,490.3978705859,495.52457227607,494.70766512848,487.06500284303,491.0010324221,494.78531965543,496.40834509672,494.17983103489,487.4537205801,491.85542370271,492.74580755595,493.15539025377,486.43733274411,493.63355403497,495.94444582309,490.57193433357,489.30362543737,486.41098058561,492.28695432641,491.91043482884,491.38244827064,485.53918104201,493.39914738328,494.2723168227,489.24486102556,489.30362543737,492.26108642861,492.26108642861,488.6369055286,488.6369055286,4.1286101779441,0.0078277285923126,3.1390010998503e-05,0.020857312573767,0.001516185382618,-25.349034112795,-1.7909972733,-3.2930894882348e-05,0.0040790484835587,-0.0055710505984389,-0.0018840832027545,0.00035386557663002,0.0018906789548959,45.917608453079,0.0055986821589292,0.0028989315747053,0.013258712062536,0.0013810401840056,-9.3848802202953,-0.52946628739994,-5.4916492188479e-05,-0.0011983636438977,-0.022581204870417,0.012541872557095,-0.00083494192039048,0.00033635796281739,0.0036799881550014,-32.850930692238,-3.1400220426289,9.8416973879902e-05,0.011180169883224,-0.0037044287704961,-0.0015238866452165,0.031499019970042,0.0010760804103289,22.793539228389,0.0023082035388235,0.00040415272203416,0.23998421932541,39.088572187837,0.0067017924085809,0.0076853225023958,0.00091611866964218,-0.8107116440901,0.00038952575272758,8.9234489798626,-0.0050173043711606,-0.24661619674796,613.09364512046,613.09364512046,621.63496079771,621.63496079771,612.8044625737,616.97415675411,620.13868085831,619.65603243215,612.28995998708,618.1613708475,622.06223763653,618.25024800386,620.5314138451,611.30593658739,618.47789735936,619.01635436052,616.14996543571,612.95342780886,616.14396477556,621.27066646574,620.45375931814,612.8110970327,616.74712661176,620.5314138451,622.15443928639,619.92592522456,613.19981476977,617.60151789237,618.49190174561,618.90148444344,612.18342693378,619.37964822464,621.69054001276,616.31802852324,615.04971962703,612.15707477528,618.03304851608,617.65652901851,617.12854246031,611.28527523168,619.14524157295,620.01841101237,614.99095521523,615.04971962703,618.00718061828,618.00718061828,614.38299971827,614.38299971827,2390.1400790567,0.0042270024394844,913.25053596153,-0.026486646326727,903.24025365002,-0.02380440787484,0
4.2676930427551e-05,791539875.09244,770928178.14667,792670359.76303,0.062463104089687,0.64760436919854,-0.22576307227148,1494792287.1785,2.6458551651205e-06,1.2708750080043e-05,2.5454463354019e-06,1.0004441279514,486.18101540932,486.18101540932,495.75157844365,495.75157844365,485.88782343963,490.62700430925,493.98746645891,493.51491289245,485.43239495745,492.01416389096,496.22734102909,492.05811453305,494.48948103895,483.94507966905,492.17520644418,492.66314459265,489.55644896322,486.14185050091,489.7470795576,495.28001568342,494.41670855098,486.06421407752,490.47561751456,494.48948103895,496.33509846003,493.90985751097,486.24230204072,491.27775352013,492.1223313558,492.66257064707,485.24984045222,493.31659900593,495.80373637787,489.8912847415,488.21420796022,484.90213547161,491.67796802452,491.12013556952,490.64742093137,483.97963578534,492.92487561715,493.82102440712,488.26936875381,488.21420796022,491.65353417031,491.65353417031,487.83787165825,487.83787165825,4.165498996084,0.0069939669115454,3.307626898945e-05,0.019589529734474,0.0013279868889391,-26.348307671351,-1.7872455194391,-4.7080981467277e-05,0.0037178819681483,-0.0056664678838441,-0.0019402549927319,0.00036494337013126,0.0019907148876248,65.088881969345,0.0053140938893956,0.0028711904023221,0.013485273173104,0.0013152917767369,-9.6784121941884,-0.52078033535277,-5.5965935190703e-05,-0.0012782743872457,-0.020448666130953,0.012255393768979,-0.00086441014598865,0.00032186229685447,0.0032354621981227,-34.419419144672,-3.1502922152044,4.2547715092945e-05,0.010153252393979,-0.0039141984016545,-0.0015982205986059,0.031649673982328,0.00095306756518472,26.605814665235,0.0022519028676582,0.00041214393679449,0.25122447709391,50.100727259875,0.0062363490434224,0.007515819411621,0.00088385784739407,-0.81084324399731,0.00029508449224172,9.4055394955533,-0.0041100534220569,-0.24936878590959,612.10497063492,612.10497063492,621.67553366925,621.67553366925,611.81177866523,616.55095953485,619.9114216845,619.43886811805,611.35635018305,617.93811911656,622.15129625468,617.98206975864,620.41343626455,609.86903489465,618.09916166978,618.58709981824,615.48040418881,612.0658057265,615.6710347832,621.20397090902,620.34066377658,611.98816930312,616.39957274016,620.41343626455,622.25905368563,619.83381273657,612.16625726631,617.20170874573,618.04628658139,618.58652587267,611.17379567782,619.24055423152,621.72769160346,615.81523996709,614.13816318582,610.82609069721,617.60192325011,617.04409079512,616.57137615697,609.90359101094,618.84883084275,619.74497963271,614.19332397941,614.13816318582,617.57748939591,617.57748939591,613.76182688384,613.76182688384,1590.2238028003,0.0042581134869313,912.15827233228,-0.027125283643445,901.99000262857,-0.024352238522809,0
4.2755055427551e-05,791222596.45102,770187451.3902,792324601.05832,0.062463104089687,0.64760436919854,-0.22576307227148,1495045920.1865,2.6621370280686e-06,1.273209296645e-05,2.5560395741603e-06,1.0004546102334,485.8929649554,485.8929649554,495.71808494441,495.71808494441,485.60566499546,490.47259893796,493.89418378761,493.4154264138,485.16297909017,491.91202506368,496.20697337176,491.95410731165,494.41695726221,483.49346643809,492.03574066735,492.52401713228,489.35369797137,485.88608542308,489.58311714898,495.22279488162,494.34379855681,485.82456087051,490.3444576528,494.41695726221,496.31838482629,493.8462904794,485.94905533859,491.12816528612,491.97874500855,492.53815773468,484.95684734551,493.23514641562,495.77043347606,489.73164968253,487.95433016268,484.50432811765,491.52471736574,490.93742663178,490.46938552518,483.5506590494,492.80672121855,493.71690050253,488.03532644883,487.95433016268,491.50004877676,491.50004877676,487.64435667976,487.64435667976,4.3840325795027,0.0068197892145943,3.3649687170039e-05,0.01932283438955,0.0012272758073351,-27.436124971955,-1.7984576353441,-5.1803301327864e-05,0.0037169377387003,-0.0059049905117418,-0.0020019766271814,0.00038598915435616,0.0020204348672316,92.255265975876,0.0053010407596762,0.0029569858017311,0.013995977444478,0.0012985248062878,-10.020046375434,-0.52270653804112,-5.922869558474e-05,-0.0013202878705516,-0.020838065309806,0.012943442710049,-0.00088873944486346,0.00030827271246551,0.0028905890861928,-36.011974052115,-3.1742189962814,3.7396111889588e-05,0.010018327053432,-0.0041447664773814,-0.0016951650581562,0.033157999380494,0.00087214548400188,28.835112262508,0.0023478613028878,0.00042543888930228,0.26047733761174,61.592337840394,0.0061032580620256,0.007874925755613,0.00089839455618318,-0.77294923020821,0.00024767563662742,9.790199358043,-0.0040404357788487,-0.25443718413139,611.88303145944,611.88303145944,621.70815144844,621.70815144844,611.59573149949,616.462665442,619.88425029164,619.40549291784,611.15304559421,617.90209156772,622.19703987579,617.94417381569,620.40702376625,609.48353294212,618.02580717138,618.51408363632,615.3437644754,611.87615192711,615.57318365301,621.21286138565,620.33386506084,611.81462737454,616.33452415684,620.40702376625,622.30845133033,619.83635698344,611.93912184263,617.11823179015,617.96881151259,618.52822423871,610.94691384955,619.22521291965,621.76049998009,615.72171618657,613.94439666671,610.49439462168,617.51478386978,616.92749313581,616.45945202921,609.54072555344,618.79678772259,619.70696700657,614.02539295287,613.94439666671,617.49011528079,617.49011528079,613.63442318379,613.63442318379,8414.5012574913,0.0042657257234055,911.49383142405,-0.027395262457747,901.23362801394,-0.024567656954595,0
4.2833180427551e-05,790892694.27301,769416681.6855,791965712.43615,0.062463104089687,0.64760436919854,-0.22576307227148,1495297961.3337,2.6830471060057e-06,1.275547954033e-05,2.5680672225118e-06,1.0004673569022,485.58011582956,485.58011582956,495.68359000911,495.68359000911,485.30706501129,490.30994615288,493.7974927818,493.31171805078,484.87549359944,491.80535571172,496.1861628759,491.84566050499,494.34150455641,482.84064856432,491.88976214159,492.37865482824,489.14106275224,485.61745529814,489.41131475763,495.16372874458,494.26801922994,485.572124876,490.20750280617,494.34150455641,496.3014148696,493.78028751766,485.63617461151,490.9700891881,491.82911693416,492.40812683934,484.63900374678,493.15013827769,495.73607400778,489.56416808308,487.67729592386,484.03101739807,491.36396993875,490.74538096996,490.28323360188,482.99250140634,492.68330800632,493.6085028929,487.78780152342,487.67729592386,491.33896942666,491.33896942666,487.44226768202,487.44226768202,4.6521399235529,0.0064087641925175,3.4033925859698e-05,0.018586478736944,0.0010732611871642,-27.789934641528,-1.7829555263334,-5.4024990457876e-05,0.0035511403026103,-0.0064691316013338,-0.0020121030918804,0.0004732867204854,0.002039914049682,150.5048679978,0.0056796770532155,0.0030446510295524,0.014299067726597,0.0012707064206668,-10.10103075054,-0.51523470748663,-5.7175168946003e-05,-0.0013526192420876,-0.021811901000678,0.013221003450393,-0.00089255490503975,0.0002965348057107,0.0023561225916382,-36.983138622236,-3.1575449027551,2.022041977538e-05,0.0095049359301128,-0.0043880921590575,-0.0017099919280952,0.036933562934277,0.00074134712730469,28.045556781998,0.0027691177238626,0.00044497540365544,0.26653080491619,62.001556429655,0.0062824171107545,0.0081140029620241,0.00089653432587685,-0.70192572042787,0.00011095549859204,9.9704412147204,-0.003883261234876,-0.25373086545972,611.71729665406,611.71729665406,621.8207708336,621.8207708336,611.44424583579,616.44712697737,619.93467360629,619.44889887527,611.01267442393,617.94253653621,622.32334370039,617.98284132949,620.47868538091,608.97782938882,618.02694296609,618.51583565273,615.27824357673,611.75463612263,615.54849558212,621.30090956907,620.40520005443,611.7093057005,616.34468363066,620.47868538091,622.43859569409,619.91746834215,611.773355436,617.1072700126,617.96629775865,618.54530766383,610.77618457127,619.28731910218,621.87325483227,615.70134890757,613.81447674836,610.16819822256,617.50115076325,616.88256179445,616.42041442637,609.12968223083,618.82048883081,619.74568371739,613.92498234791,613.81447674836,617.47615025115,617.47615025115,613.57944850651,613.57944850651,20443.184344465,0.0042735005691522,910.33757042087,-0.027893286627093,899.87358004814,-0.02493459795497,0
4.2838063240051e-05,790878541.47009,769385976.08524,791953788.22003,0.062463104089687,0.64760436919854,-0.22576307227148,1495314319.9329,2.6842897668752e-06,1.2756937410354e-05,2.5672972436239e-06,1.0004680694065,485.56911198579,485.56911198579,495.68215897781,495.68215897781,485.29578939966,490.30952777618,493.79301365159,493.30988458642,484.86450721438,491.8027832266,496.18480634347,491.8413955901,494.33915597005,482.82489553438,491.88763979516,492.37243904574,489.13444190004,485.60743528254,489.40832211406,495.16095241099,494.26621346599,485.56229549352,490.20373007665,494.33915597005,496.30018608614,493.77771980717,485.62433275253,490.97315009579,491.82246172087,492.40655233872,484.62740604167,493.14818844181,495.73441282149,489.55764576757,487.66639282963,484.01662992309,491.36263220522,490.73728264384,490.2786984903,482.97770112995,492.68077281346,493.60403282523,487.77927594673,487.66639282963,491.33833833889,491.33833833889,487.43541384421,487.43541384421,4.8005433618015,0.0065499634834821,3.3903199585114e-05,0.018458606738023,0.0010576536732819,-29.197551190654,-1.7901250203538,-5.9736494916831e-05,0.0036246908536149,-0.0065280971973417,-0.0020302965599891,0.00050571204215461,0.0020922234082591,150.46030703181,0.0057493902105165,0.0030639726259138,0.017003224882158,0.0012582560392633,-10.397768376868,-0.51704927710679,-6.3385650034587e-05,-0.0013489058403948,-0.02196044285051,0.013434660563789,-0.00089960073334012,0.00026558736725874,0.0023122523191401,-40.517353098018,-3.1697997469449,1.9995648093015e-05,0.0094466242602567,-0.0044636036066177,-0.0017362011774995,0.037828850195462,0.00069973875810251,29.301317670352,0.0028573728108511,0.00044579944558763,0.32298553370085,63.312673002321,0.0062518929476696,0.0081994236824618,0.00092615016890457,-0.68869452535114,0.00012677309482665,11.170842346412,-0.0038917071416326,-0.25766013953885,611.70672603881,611.70672603881,621.81977303083,621.81977303083,611.43340345268,616.4471418292,619.93062770461,619.44749863944,611.0021212674,617.94039727962,622.32242039649,617.97900964312,620.47677002307,608.9625095874,618.02525384818,618.51005309876,615.27205595306,611.74504933556,615.54593616708,621.29856646401,620.40382751902,611.69990954654,616.34134412967,620.47677002307,622.43780013916,619.9153338602,611.76194680555,617.11076414881,617.96007577389,618.54416639174,610.76502009469,619.28580249483,621.87202687451,615.69525982059,613.80400688265,610.15424397611,617.50024625824,616.87489669686,616.41631254332,609.11531518297,618.81838686648,619.74164687825,613.91688999975,613.80400688265,617.47595239191,617.47595239191,613.57302789723,613.57302789723,33841.183504926,0.0042739183852297,910.29922409663,-0.027894369879303,899.80786056658,-0.024949795283042,0
4.2842946052551e-05,790860578.42802,769337501.63908,791921700.16328,0.062463104089687,0.64760436919854,-0.22576307227148,1495330696.3145,2.6854330504282e-06,1.2758401603808e-05,2.5681808182933e-06,1.0004689021636,485.55580679985,485.55580679985,495.67892546291,495.67892546291,485.27956033999,490.29076689261,493.78680077898,493.29937352084,484.85097448107,491.79257578738,496.18327288033,491.83511605432,494.33265915257,482.80665904743,491.87315155599,492.36463007462,489.12068926133,485.59121958859,489.39128430312,495.1564609177,494.25872063172,485.54856842878,490.19167603582,494.33265915257,496.2988586647,493.77321343984,485.60874488723,490.95202387164,491.81399455259,492.39298626727,484.61392907687,493.13971750436,495.73174609472,489.54902399714,487.65341876729,483.99984950641,491.34579869813,490.72778539855,490.26399752353,482.96041049536,492.66915793824,493.5973481955,487.76597620291,487.65341876729,491.32073146828,491.32073146828,487.42060840334,487.42060840334,4.812068992402,0.0065189135224993,3.3907491960352e-05,0.018411461768226,0.0010511610870695,-29.24550040019,-1.7873748676393,-6.0044074153791e-05,0.0036096775720363,-0.0065451306126758,-0.0020303210868408,0.00051028329164557,0.0020652117623785,131.66054750165,0.0057888348062468,0.0030717065489804,0.014648746375064,0.0012556997054617,-10.29441182628,-0.5162171874099,-6.3293815817018e-05,-0.0013500138962268,-0.022004838371914,0.013453292927941,-0.00089949614280456,0.00026510122319764,0.0022931103789816,-43.87934623894,-3.1633657190996,1.812662659966e-05,0.0094067206789766,-0.0044569122386926,-0.0017377143506606,0.038007264501043,0.00069630222447495,29.245445092251,0.0028991743690476,0.00044740243782356,0.27532025259495,60.715990074723,0.0062787698981613,0.0082272371425166,0.0008943563025521,-0.67356023672699,0.00011477817846205,10.984864982091,-0.0038945592620066,-0.25658662555266,611.69816548139,611.69816548139,621.82128414445,621.82128414445,611.42191902153,616.43312557415,619.92915946052,619.44173220238,610.99333316261,617.93493446892,622.32563156187,617.97747473586,620.47501783411,608.94901772897,618.01551023753,618.50698875616,615.26304794287,611.73357827013,615.53364298466,621.29881959925,620.40107931326,611.69092711032,616.33403471736,620.47501783411,622.44121734624,619.91557212138,611.75110356877,617.09438255318,617.95635323413,618.53534494881,610.75628775841,619.2820761859,621.87410477626,615.69138267868,613.79577744883,610.14220818795,617.48815737967,616.87014408009,616.40635620507,609.1027691769,618.81151661978,619.73970687704,613.90833488446,613.79577744883,617.46309014982,617.46309014982,613.56296708488,613.56296708488,173372.56318653,0.0042744874201667,910.22089276481,-0.027941848178338,899.71664063101,-0.025000997491925,0
4.2845387458801e-05,790852801.02794,769318802.50812,791912883.67644,0.062463104089687,0.64760436919854,-0.22576307227148,1495338887.3963,2.6860508972095e-06,1.2759128562826e-05,2.5701765126025e-06,1.0004692617246,485.54989633944,485.54989633944,495.67812544152,495.67812544152,485.27353972985,490.28708087365,493.78487199115,493.29671133157,484.84519897511,491.78979957333,496.18290984971,491.83253432177,494.33085326868,482.79882052655,491.86956861062,492.36171743701,489.11575158691,485.58547739243,489.38725484742,495.15527695215,494.25678567738,485.54312953328,490.18821568223,494.33085326868,496.29857931422,493.77157310097,485.60275052755,490.94875681894,491.8110211072,492.38967304349,484.60793656448,493.13749245853,495.7310295959,489.54527905755,487.64825164465,483.99275634717,491.34185474619,490.72406254312,490.2594320318,482.95285561681,492.66612113818,493.59507318316,487.76064293242,487.64825164465,491.3166642618,491.3166642618,487.4158714136,487.4158714136,4.8253247598014,0.0075514775801419,3.3886902906448e-05,0.018461315684957,0.0010545868321138,-28.686612829302,-1.7894576899333,-6.0186738398512e-05,0.0036880903042687,-0.0065349405805287,-0.0020330046895981,0.0005125038685241,0.0020742268261577,125.15524029806,0.0058090238763823,0.0030710480400404,0.014677695761457,0.0012664881593827,-10.297541475377,-0.51745460715622,-6.3348152998862e-05,-0.0013328464210721,-0.021980746300443,0.013423951295571,-0.00090045278860361,0.00026450529957277,0.002293165583561,-52.756821932911,-3.1657455898117,1.7614985210898e-05,0.0099442315725596,-0.0044504734082395,-0.0017423955204677,0.038119828482391,0.00070901400466009,29.297134460734,0.0029198699505704,0.00044800869888593,0.27493607389087,59.908833725037,0.0062917682077083,0.0082131909455539,0.00093557497482741,-0.67377137863848,0.00010789463115001,10.27083284764,-0.0038844486600105,-0.25686510322731,611.69310250801,611.69310250801,621.82133161008,621.82133161008,611.41674589842,616.43028704221,619.92807815971,619.43991750013,610.98840514368,617.93300574189,622.32611601828,617.97574049033,620.47405943724,608.94202669511,618.01277477918,618.50492360558,615.25895775548,611.72868356099,615.53046101599,621.29848312071,620.39999184595,611.68633570185,616.3314218508,620.47405943724,622.44178548279,619.91477926954,611.74595669611,617.0919629875,617.95422727577,618.53287921205,610.75114273304,619.2806986271,621.87423576446,615.68848522612,613.79145781322,610.13596251574,617.48506091476,616.86726871169,616.40263820036,609.09606178537,618.80932730675,619.73827935172,613.90384910098,613.79145781322,617.45987043036,617.45987043036,613.55907758216,613.55907758216,796137.75049806,0.0042747183448735,910.20940679106,-0.027963724099229,899.6848616974,-0.025033313854544,0
4.2846608161926e-05,790848560.79983,769307241.26567,791904788.87406,0.062463104089687,0.64760436919854,-0.22576307227148,1495342969.5774,2.686281847186e-06,1.2759494690209e-05,2.5704168131965e-06,1.0004694711466,485.54676431847,485.54676431847,495.67729376265,495.67729376265,485.26930237464,490.28246410878,493.78302577051,493.29440838892,484.84185361125,491.78743292472,496.18236842392,491.83116338593,494.32923373097,482.79431411769,491.8662860657,492.35952955353,489.11275352259,485.5813179259,489.38310574702,495.15394294162,494.25510054442,485.53971681695,490.18537477983,494.32923373097,496.29810402116,493.77058835183,485.59861576313,490.94322651008,491.80856726094,492.38673248138,484.60464885706,493.1355237625,495.73023131412,489.54334647795,487.64471125042,483.98844962907,491.33809891497,490.72140477915,490.25628727761,482.94865370426,492.66343286553,493.5932404967,487.75766085184,487.64471125042,491.31284915532,491.31284915532,487.41222182889,487.41222182889,4.8309200859923,0.0075427569446271,3.3888618381922e-05,0.018451521984519,0.0010528007347527,-28.651081525972,-1.7892785644894,-6.0257776982718e-05,0.0036847226254781,-0.006539104359655,-0.0020332439091449,0.0005134938267278,0.0020707121571111,122.28691545312,0.0058175990490764,0.0030731170382267,0.014720226298988,0.0012658145506219,-10.323477932396,-0.51737034903403,-6.3325837071457e-05,-0.0013335999017715,-0.021989842645964,0.013433025787427,-0.00090050887347122,0.00026437324072274,0.0022873798892715,-40.347318639216,-3.1655484696393,1.7172886662958e-05,0.0099345643381937,-0.0044538153644312,-0.0017426950542706,0.038168107155392,0.00070751995385049,29.316339948238,0.0029292452383741,0.00044838367452085,0.27617202030589,59.539414715988,0.006297174158515,0.0082196457087478,0.00093608024827066,-0.67282567330158,0.00010496515399601,10.314261642893,-0.003886338826106,-0.25714887796218,611.6913840677,611.6913840677,621.82191351189,621.82191351189,611.41392212388,616.42708385802,619.92764551975,619.43902813816,610.98647336048,617.93205267395,622.32698817315,617.97578313516,620.47385348021,608.93893386693,618.01090581493,618.50414930277,615.25737327183,611.72593767514,615.52772549625,621.29856269086,620.39972029366,611.68433656619,616.32999452907,620.47385348021,622.4427237704,619.91520810107,611.74323551237,617.08784625931,617.95318701017,618.53135223062,610.7492686063,619.28014351174,621.87485106336,615.68796622719,613.78933099966,610.13306937831,617.48271866421,616.86602452839,616.40090702685,609.09327345349,618.80805261476,619.73786024593,613.90228060107,613.78933099966,617.45746890456,617.45746890456,613.55684157812,613.55684157812,746170.52395666,0.0042748869080156,910.19168374231,-0.027976053467082,899.66209319485,-0.025048222350713,0
4.2849049568176e-05,790840394.93132,769285991.24426,791892244.84398,0.062463104089687,0.64760436919854,-0.22576307227148,1495351134.5553,2.6868521573696e-06,1.2760225035259e-05,2.5707579985332e-06,1.0004698416661,485.54067004162,485.54067004162,495.67608568837,495.67608568837,485.26227970637,490.27650998677,493.78045297902,493.29064127816,484.83569439614,491.78359298986,496.18176642542,491.82840189655,494.32671595632,482.78611921301,491.86118078771,492.35610949384,489.10708813296,485.57444923232,489.37714247549,495.15218173582,494.25235038989,485.53364492129,490.18074922269,494.32671595632,496.29760094692,493.76870528066,485.59176113458,490.93731365102,491.80491823934,492.3820286457,484.59843327889,493.13235978303,495.72917223092,489.53945098715,487.63890777344,483.98086644868,491.33243380111,490.71716744466,490.2506552505,482.94081557298,492.65916478015,493.59041819555,487.75187382951,487.63890777344,491.30709960191,491.30709960191,487.40624880745,487.40624880745,4.8284589422801,0.00752865178345,3.3898430297309e-05,0.018432385667961,0.0010496306098075,-28.420279761156,-1.7887275178415,-6.0338825337809e-05,0.0036791387541462,-0.0065454069798547,-0.0020333743749548,0.00051437213249145,0.00207277566847,116.97435283574,0.0058337774807338,0.0030751471137714,0.014639194482452,0.0012649330699913,-10.281301386483,-0.51714640283782,-6.3284451180113e-05,-0.0013345613063841,-0.021990079226277,0.013431256431261,-0.00090058208308359,0.00026412798898818,0.0022767319696583,-38.547295413957,-3.1647915652618,1.6600815875993e-05,0.0099187503169936,-0.0044567494658048,-0.001742295621803,0.038180681226765,0.00070483056346032,29.255838361678,0.0029466434581031,0.00044891120316362,0.27347380651237,58.664676494652,0.0063070699082651,0.0082222154063894,0.0009352250714794,-0.67228088814464,9.8998348547733e-05,10.222998969215,-0.0038821449614641,-0.25663824487887,611.68653975661,611.68653975661,621.82195540335,621.82195540335,611.40814942135,616.42237970175,619.926322694,619.43651099314,610.98156411112,617.92946270484,622.3276361404,617.97427161153,620.4725856713,608.93198892799,618.00705050269,618.50197920882,615.25295784794,611.7203189473,615.52301219047,621.2980514508,620.39822010487,611.67951463627,616.32661893767,620.4725856713,622.4434706619,619.91457499564,611.73763084956,617.083183366,617.95078795432,618.52789836068,610.74430299387,619.27822949801,621.8750419459,615.68532070213,613.78477748842,610.12673616366,617.4783035161,616.86303715964,616.39652496548,609.08668528796,618.80503449513,619.73628791053,613.89774354449,613.78477748842,617.45296931689,617.45296931689,613.55211852243,613.55211852243,235484.5690875,0.0042751398412858,910.16222904007,-0.027988733835689,899.62767442259,-0.025057943457474,0
4.2853932380676e-05,790824431.08644,769246079.34894,791870223.78906,0.062463104089687,0.64760436919854,-0.22576307227148,1495367471.5111,2.6879979003153e-06,1.2761684682e-05,2.5713901274335e-06,1.000470536184,485.52866259631,485.52866259631,495.67396499985,495.67396499985,485.24871196106,490.26643243111,493.77545409673,493.28431638858,484.8235817279,491.77698284162,496.18056350688,491.82318526335,494.32226497445,482.7698299145,491.85248757783,492.34932922912,489.09672144552,485.56140117984,489.36680153156,495.14886761745,494.24770381185,485.52193102544,490.17261528623,494.32226497445,496.29659786219,493.76526199306,485.57832766579,490.92745276024,491.79770860113,492.37414815911,484.58609300442,493.12697307072,495.7271767266,489.53193004876,487.6273221133,483.96573305078,491.32285190118,490.7086695472,490.24072505621,482.92525788285,492.65182831283,493.58498633735,487.74091329652,487.6273221133,491.29744669295,491.29744669295,487.39530182139,487.39530182139,4.819334796188,0.0075035818496394,3.3921535412899e-05,0.018397165019636,0.0010439849653629,-28.329478503801,-1.7878654825821,-6.0492029977203e-05,0.0036693016108519,-0.0065513221310072,-0.0020337885133641,0.00051502022292994,0.0020707269189373,109.00698004597,0.0058611039067999,0.0030783792988146,0.014620507798368,0.0012634222629393,-10.26824384979,-0.51675926468214,-6.3212208910306e-05,-0.0013362971391026,-0.02196856789955,0.01343136332276,-0.00090081398966448,0.00026368351428781,0.0022577271384112,-37.886393271378,-3.1637413575999,1.5566958171542e-05,0.009890864094543,-0.004461349528448,-0.0017428072989658,0.038154297096486,0.00070004473270985,29.127116640035,0.0029765854559333,0.00044980178976851,0.27286164564919,57.278004352494,0.0063232562999402,0.0082283544157768,0.00093440489061534,-0.67218088264958,8.8220047351936e-05,10.200589834058,-0.0038707161981595,-0.25635261900369,611.67683534954,611.67683534954,621.82213775308,621.82213775308,611.39688471429,616.41460518434,619.92362684996,619.43248914181,610.97175448113,617.92515559486,622.32873626011,617.97135801658,620.47043772768,608.91800266773,618.00066033107,618.49750198235,615.24489419875,611.70957393307,615.51497428479,621.29704037068,620.39587656508,611.67010377867,616.32078803946,620.47043772768,622.44477061543,619.91343474629,611.72650041902,617.07562551347,617.94588135436,618.52232091234,610.73426575766,619.27514582395,621.87534947983,615.680102802,613.77549486653,610.11390580401,617.47102465441,616.85684230043,616.38889780944,609.07343063608,618.80000106606,619.73315909058,613.88908604975,613.77549486653,617.44561944618,617.44561944618,613.54347457462,613.54347457462,90253.098157092,0.0042756258124814,910.11385221544,-0.028011177654917,899.57034663149,-0.025074919967683,0
4.2863698005676e-05,790792501.18167,769165450.33772,791824915.70413,0.062463104089687,0.64760436919854,-0.22576307227148,1495400155.2325,2.6901558661142e-06,1.2764602936937e-05,2.5726123165343e-06,1.0004718666427,485.50472220449,485.50472220449,495.66962408393,495.66962408393,485.22141228787,490.24547954074,493.76540129177,493.27123721229,484.79933519357,491.76328434883,496.17814699486,491.81270137184,494.31312477098,482.73755748626,491.8345125948,492.33578278446,489.07573497817,485.53502617432,489.3454089689,495.14215810733,494.23811345061,485.49834826426,490.15584190354,494.31312477098,496.29458701396,493.75829665938,485.551402728,490.9069139054,491.78326965009,492.35783386981,484.5614803899,493.11578796887,495.7231247228,489.51687550785,487.60420963165,483.93563522905,491.30301626211,490.69173461377,490.22044279373,482.89437088095,492.63668530658,493.57406102619,487.71889131299,487.60420963165,491.27744849454,491.27744849454,487.37296169309,487.37296169309,4.7927341323555,0.007457873447911,3.3969592883237e-05,0.018334175234994,0.0010342835523411,-28.448475745458,-1.7863965423541,-6.0808264738627e-05,0.0036509479929285,-0.0065473231304414,-0.0020347887656525,0.00051387672584282,0.0020684501167648,98.730217420589,0.0059019768010588,0.0030834755531737,0.014600479396847,0.0012606004513845,-10.290604040988,-0.51608620291745,-6.3108590211417e-05,-0.001339727686623,-0.021882600423274,0.013425397086446,-0.00090138371204301,0.00026289461800649,0.0022254054485995,-37.87155837426,-3.1619553271187,1.3667567911247e-05,0.0098397282930401,-0.0044656586849778,-0.0017439003771237,0.037993562775182,0.00069185980836732,28.859912174202,0.0030237899025333,0.00045131759107561,0.27266270910521,55.307879962269,0.006345356764686,0.0082364295354524,0.00093277895335647,-0.67377437136272,7.0208974654756e-05,10.241128471022,-0.0038471212640926,-0.25601179346744,611.65739824848,611.65739824848,621.82230012791,621.82230012791,611.37408833186,616.39815558472,619.91807733575,619.42391325628,610.95201123756,617.91596039282,622.33082303885,617.96537741582,620.46580081497,608.89023353024,617.98718863879,618.48845882845,615.22841102216,611.6877022183,615.49808501289,621.29483415131,620.3907894946,611.65102430824,616.30851794753,620.46580081497,622.44726305794,619.91097270337,611.70407877198,617.05958994938,617.93594569408,618.5105099138,610.71415643388,619.26846401286,621.87580076679,615.66955155184,613.75688567564,610.08831127303,617.4556923061,616.84441065775,616.37311883771,609.04704692494,618.78936135057,619.72673707018,613.87156735697,613.75688567564,617.43012453853,617.43012453853,613.52563773707,613.52563773707,37175.339864886,0.0042765977855919,910.02989589918,-0.028052571734668,899.47143595987,-0.025105891282332,0
4.2868580818176e-05,790776671.59789,769125383.60072,791802331.86899,0.062463104089687,0.64760436919854,-0.22576307227148,1495416489.8073,2.6912139916073e-06,1.2766061933766e-05,2.5732187242685e-06,1.0004725249618,485.49287767083,485.49287767083,495.66746328852,495.66746328852,485.20784742025,490.23485728786,493.76040243406,493.26469960681,484.78731151074,491.75640652415,496.17694277514,491.80750442497,494.308562394,482.72169413951,491.82549237313,492.32906110051,489.06531272202,485.52189650706,489.33461507895,495.1388179716,494.23332912972,485.48662859769,490.14742582611,494.308562394,496.29358574397,493.75484050203,485.53804226458,490.89649522199,491.77609781762,492.34966009435,484.54929400702,493.11017738662,495.72110486,489.5094175263,487.59275286394,483.92076540598,491.29304307138,490.6833372377,490.2103374061,482.87915219757,492.62910332955,493.56863290576,487.70797718424,487.59275286394,491.26739191186,491.26739191186,487.36179430237,487.36179430237,4.7997280754396,0.0074389643660747,3.4006633080274e-05,0.018312404476688,0.0010298406693676,-28.70947080254,-1.7863066802334,-6.103814026843e-05,0.0036447536382138,-0.0065443089281219,-0.0020368815611011,0.00051398571167962,0.0020665913387614,95.453768290772,0.005921221652988,0.0030875970038402,0.014606426334219,0.0012593744422185,-10.290030688989,-0.51596103001444,-6.307744892207e-05,-0.0013422847455393,-0.021842824244807,0.013442040535251,-0.00090226059778939,0.00026258303679859,0.0022105695052037,-38.337940281212,-3.1620856980184,1.2463613210172e-05,0.0098205845245432,-0.0044711659468275,-0.0017468855741534,0.038003609314516,0.00068811275056753,28.900423454184,0.0030461115157176,0.00045219772385784,0.27258976539157,54.887998972957,0.0063556222265911,0.0082487900015761,0.00093269435840109,-0.67223556041735,6.1253292173315e-05,10.233844529487,-0.0038376165581988,-0.25597843834565,611.64773222972,611.64773222972,621.82231784742,621.82231784742,611.36270197914,616.38971184675,619.91525699296,619.4195541657,610.94216606963,617.91126108305,622.33179733403,617.96235898386,620.46341695289,608.8765486984,617.98034693202,618.4839156594,615.22016728091,611.67675106595,615.48946963785,621.29367253049,620.38818368861,611.64148315658,616.30228038501,620.46341695289,622.44844030286,619.90969506093,611.69289682347,617.05134978088,617.93095237651,618.50451465324,610.70414856591,619.26503194552,621.87595941889,615.66427208519,613.74760742283,610.07561996487,617.44789763027,616.83819179659,616.36519196499,609.03400675646,618.78395788844,619.72348746465,613.86283174313,613.74760742283,617.42224647075,617.42224647075,613.51664886126,613.51664886126,109105.73180123,0.0042770837708514,909.98938261654,-0.028071328430616,899.42391615728,-0.025120012767661,0
4.2873463630676e-05,790760850.55699,769085591.26295,791780145.22347,0.062463104089687,0.64760436919854,-0.22576307227148,1495432814.0946,2.692251771836e-06,1.2767520775904e-05,2.5738186596587e-06,1.0004731745366,485.4810339772,485.4810339772,495.66533216556,495.66533216556,485.1943560724,490.22432406476,493.75542371534,493.25829930627,484.77531695735,491.74968818853,496.17574215213,491.802325751,494.30407775061,482.70585872601,491.81666192755,492.32234133936,489.05497733407,485.50887435446,489.32401962047,495.13550367395,494.22863801952,485.47497626004,490.13917958932,494.30407775061,496.29258555541,493.75140882956,485.52472340325,490.8860668327,491.76893894978,492.34166404657,484.53711320665,493.10470314151,495.71910490981,489.50197051097,487.58129732435,483.90589849138,491.28327705244,490.67493146286,490.20037106773,482.86394712913,492.62167577646,493.5632275728,487.69710627136,487.58129732435,491.25754608901,491.25754608901,487.35078279517,487.35078279517,4.7900522822236,0.0074185059642001,3.4035463092248e-05,0.018286079819045,0.0010255534198948,-28.349997690667,-1.785869316854,-6.1223811233573e-05,0.0036368588350452,-0.0065381446710376,-0.0020379500687629,0.00051288583514909,0.0020657679571277,92.333618659208,0.0059377669714758,0.0030903598634522,0.014607315219865,0.0012580661587791,-10.271391471081,-0.51572485425536,-6.3043232550042e-05,-0.0013442976911353,-0.021790428842478,0.013443792288811,-0.00090276785431611,0.00026224086224898,0.0021963932460226,-38.852436302572,-3.1616475870654,1.1465387433197e-05,0.009798236876999,-0.0044731955972695,-0.0017482328532951,0.037917635353796,0.00068450761929821,28.816884467215,0.0030661946778472,0.00045293894394397,0.27252589503665,54.272902224823,0.0063636922624992,0.0082546127823736,0.00093217255029803,-0.67281106252528,5.3079178020166e-05,10.218355850788,-0.0038263754983295,-0.2559399166852,611.63814019753,611.63814019753,621.8224383859,621.8224383859,611.35146229274,616.38143028509,619.91252993567,619.41540552661,610.93242317768,617.90679440887,622.33284837247,617.95943197133,620.46118397095,608.86296494635,617.97376814789,618.47944755969,615.21208355441,611.66598057479,615.48112584081,621.29260989428,620.38574423986,611.63208248038,616.29628580966,620.46118397095,622.44969177574,619.9085150499,611.68182962359,617.04317305304,617.92604517011,618.49877026691,610.69421942699,619.26180936184,621.87621113014,615.6590767313,613.73840354469,610.06300471172,617.44038327278,616.83203768319,616.35747728806,609.02105334946,618.7787819968,619.72033379313,613.85421249169,613.73840354469,617.41465230934,617.41465230934,613.50788901551,613.50788901551,351178.01967388,0.0042775697598079,909.95084967428,-0.028089768261869,899.37876167901,-0.025133826018721,0
4.2875905036926e-05,790752960.51699,769065808.59541,791769162.70358,0.062463104089687,0.64760436919854,-0.22576307227148,1495440971.1115,2.6927680870493e-06,1.2768250137264e-05,2.5741160230428e-06,1.0004734965108,485.47513197329,485.47513197329,495.66427474372,495.66427474372,485.18764998884,490.21929371617,493.75294492169,493.2551445699,484.76934589486,491.74638892552,496.17514351769,491.79974684424,494.30186026762,482.6979833628,491.81232813662,492.31899123972,489.04984515459,485.50241253543,489.31886202301,495.13385569577,494.22632045161,485.46918488915,490.13512547148,494.30186026762,496.2920861244,493.74970194293,485.51809504433,490.88114358633,491.76537216945,492.33773351512,484.53104464118,493.10201267703,495.71811147349,489.49825983471,487.57558800689,483.89849385137,491.27849966137,490.6707391829,490.19543996742,482.85637927746,492.61801901197,493.56053711179,487.69169658784,487.57558800689,491.25273235401,491.25273235401,487.34534323699,487.34534323699,4.7921672129846,0.007409578343176,3.4054278324486e-05,0.018275871705814,0.001023509555181,-28.344917394224,-1.7858426892562,-6.1339650502318e-05,0.0036339031908083,-0.0065351063667305,-0.0020390179522108,0.00051264743972248,0.002064757643299,91.129302233668,0.0059459420908162,0.0030922298869771,0.014612752141668,0.001257480241846,-10.275355307402,-0.51566951980202,-6.303161519851e-05,-0.0013455806675225,-0.021766345431407,0.013451697679993,-0.00090321928742628,0.00026209504923868,0.0021896025163528,-37.845538251612,-3.1617354403167,1.0880909170432e-05,0.0097891976568468,-0.004475533613306,-0.0017497935423676,0.037908027536015,0.00068278735292647,28.83184858582,0.0030760515195355,0.00045334182035297,0.27260666253833,54.112565324862,0.0063677161816717,0.0082603184697425,0.00093212939787105,-0.67225802317638,4.8941829061082e-05,10.221180047528,-0.0038215777724328,-0.25598834301698,611.63326849476,611.63326849476,621.82241126519,621.82241126519,611.3457865103,616.37743023764,619.91108144316,619.41328109137,610.92748241633,617.90452544699,622.33328003915,617.95788336571,620.45999678909,608.85611988426,617.97046465809,618.47712776119,615.20798167606,611.6605490569,615.47699854448,621.29199221723,620.38445697308,611.62732141062,616.29326199295,620.45999678909,622.45022264587,619.9078384644,611.6762315658,617.0392801078,617.92350869091,618.49587003658,610.68918116265,619.2601491985,621.87624799496,615.65639635618,613.73372452836,610.05663037283,617.43663618284,616.82887570437,616.35357648889,609.01451579893,618.77615553344,619.71867363326,613.84983310931,613.73372452836,617.41086887548,617.41086887548,613.50347975846,613.50347975846,430284.60922428,0.0042778127596037,909.93218220635,-0.028099116827893,899.35689101317,-0.025140807830298,0
4.2880787849426e-05,790737171.62738,769026222.96841,791747188.66921,0.062463104089687,0.64760436919854,-0.22576307227148,1495457278.1194,2.6937833050554e-06,1.2769708710422e-05,2.5747041482004e-06,1.0004741317275,485.46332294737,485.46332294737,495.66215914087,495.66215914087,485.17423147153,490.20922781224,493.74798495316,493.24883241402,484.7573981972,491.73978747034,496.1739458151,491.79458649932,494.29742328881,482.68223900644,491.80365661757,492.31228759598,489.03957580602,485.48948261932,489.30854208102,495.13055830697,494.22168341186,485.45759647831,490.12701350794,494.29742328881,496.29108696146,493.74628663614,485.50483225377,490.87129332186,491.75823503696,492.32986903764,484.51890230117,493.09662941548,495.71612376312,489.4908347571,487.56416404585,483.8836815614,491.26894056436,490.66235038491,490.18557308991,482.84124465207,492.61070214635,493.5551534776,487.6808720209,487.56416404585,491.24310060327,491.24310060327,487.33445886219,487.33445886219,4.7743119490198,0.0073890810438255,3.407931014219e-05,0.018248010861361,0.0010194950658299,-28.320389276533,-1.7852382794851,-6.1503130377932e-05,0.0036254029223059,-0.0065258588615911,-0.0020395999180089,0.00051084367024754,0.0020640309125263,88.514453507216,0.005959669315418,0.003094046915254,0.014610741556094,0.0012561746890217,-10.272727771787,-0.51538150969632,-6.2999550816274e-05,-0.0013473018944509,-0.021703713245103,0.013445998612009,-0.00090355640804379,0.0002617501480393,0.0021764277781279,-37.601205282255,-3.1610188428183,1.0008795022567e-05,0.0097660488224926,-0.0044755131888003,-0.0017504669327081,0.037772345471123,0.00067942039373968,28.69135957623,0.00309361479338,0.00045395988118204,0.27256137993649,53.478695612479,0.006373627757222,0.0082623124706772,0.0009313609576636,-0.67396327685368,4.154394552777e-05,10.213160543024,-0.0038095473401345,-0.25590081947609,611.62350050875,611.62350050875,621.82233670226,621.82233670226,611.33440903291,616.36940537362,619.90816251454,619.4090099754,610.91757575859,617.89996503172,622.33412337648,617.95476406071,620.4576008502,608.84241656782,617.96383417895,618.47246515737,615.1997533674,611.6496601807,615.4687196424,621.29073586835,620.38186097325,611.61777403969,616.28719106933,620.4576008502,622.45126452285,619.90646419752,611.66500981516,617.03147088325,617.91841259834,618.49004659902,610.67907986255,619.25680697686,621.8763013245,615.65101231848,613.72434160723,610.04385912279,617.42911812574,616.82252794629,616.34575065129,609.00142221345,618.77087970773,619.71533103899,613.84104958228,613.72434160723,617.40327816465,617.40327816465,613.49463642358,613.49463642358,87638.16390036,0.0042782987660666,909.89679322977,-0.028116167746917,899.31546401771,-0.02515367417263,0
4.2890553474426e-05,790705712.79888,768947276.72822,791703278.91971,0.062463104089687,0.64760436919854,-0.22576307227148,1495489867.4348,2.6957566140609e-06,1.2772625422065e-05,2.5758610659835e-06,1.0004753755975,485.43981529068,485.43981529068,495.65793230809,495.65793230809,485.14748462194,490.18910979654,493.73809181199,493.23622042106,484.73359902992,491.72659418656,496.17155444427,491.78430256426,494.2885605806,482.65094967687,491.78633351651,492.29892976905,489.01910012076,485.46369775954,489.28792281903,495.12397594327,494.21241817648,485.43449715838,490.11080836411,494.2885605806,496.28909176785,493.73947506586,485.47840636824,490.85160539995,491.74400815461,492.31415602319,484.49472786411,493.08586835401,495.71215433432,489.47604466092,487.54141090408,483.85420875092,491.24984403268,490.64564060094,490.16588396698,482.81115041162,492.59608558677,493.54441866757,487.65930550435,487.54141090408,491.22385805063,491.22385805063,487.31273435829,487.31273435829,4.7395993586113,0.0073502019378147,3.4130167426791e-05,0.018195652051858,0.0010121411196146,-28.307864184137,-1.784135779318,-6.1832412537535e-05,0.0036090837420094,-0.0065022677010932,-0.0020408384730544,0.0005070951744032,0.0020627623003487,84.401920055083,0.005981935033743,0.0030970958143014,0.014609399738569,0.001253668225157,-10.272774143728,-0.51484703446585,-6.2952229108863e-05,-0.0013507034486398,-0.021564881128982,0.013432554069656,-0.00090427565911414,0.00026111041418361,0.0021524638367323,-37.477601054719,-3.1597234403342,8.3439118165239e-06,0.0097220220998484,-0.0044739695457305,-0.0017519104702095,0.037503213539729,0.00067327127342753,28.425296860563,0.0031236337233849,0.00045508081055388,0.27264722623648,52.415935714135,0.0063819055278671,0.0082646603181082,0.00092982632002501,-0.67762821198092,2.8278318962298e-05,10.211033632777,-0.0037854213229822,-0.25575577037732,611.60401328054,611.60401328054,621.82213029796,621.82213029796,611.31168261181,616.3533077864,619.90228980185,619.40041841092,610.89779701979,617.89079217643,622.33575243414,617.94850055413,620.45275857046,608.81514766674,617.95053150638,618.46312775892,615.18329811062,611.62789574941,615.4521208089,621.28817393314,620.37661616635,611.59869514825,616.27500635398,620.45275857046,622.45328975771,619.90367305573,611.64260435811,617.01580338982,617.90820614448,618.47835401306,610.65892585397,619.25006634388,621.87635232419,615.64024265079,613.70560889395,610.01840674079,617.41404202255,616.80983859081,616.33008195684,608.97534840148,618.76028357664,619.70861665744,613.82350349421,613.70560889395,617.3880560405,617.3880560405,613.47693234816,613.47693234816,29720.63541629,0.0042792707960744,909.83201964384,-0.028147651800444,899.23970393842,-0.025177554765163,0
4.2910084724426e-05,790643191.44069,768789677.32582,791614894.3034,0.062463104089687,0.64760436919854,-0.22576307227148,1495554920.2501,2.6995371692038e-06,1.277845773869e-05,2.5781247622114e-06,1.0004777908577,485.39318670549,485.39318670549,495.64943611414,495.64943611414,485.09418671602,490.14836144256,493.7183628915,493.21076784969,484.68629889229,491.69994866665,496.1667804308,491.76382465353,494.27073415709,482.58906771051,491.75136698402,492.27238173005,488.97819401122,485.41220802662,489.24627800544,495.11080637448,494.19373754475,485.38846378497,490.07815031627,494.27073415709,496.28510992318,493.72586860515,485.42583998324,490.81168570381,491.71569831834,492.28242127083,484.44676571763,493.0641179147,495.70420267136,489.44665027063,487.49623945647,483.7958076461,491.21126568412,490.61247287863,490.12637996081,482.75157945305,492.56661435573,493.52301961491,487.61637318434,487.49623945647,491.18496573254,491.18496573254,487.26916050389,487.26916050389,4.6763594947481,0.0072784830053149,3.4233463728296e-05,0.018100875978689,0.00099933769500926,-28.369639135467,-1.7822489789969,-6.2496055117701e-05,0.0035784272517603,-0.0064444910070979,-0.002043506138726,0.00049991941004362,0.0020610832208702,78.728669245572,0.0060136003245551,0.0031017031525448,0.014607395364257,0.0012489463873465,-10.281943061509,-0.51390180938841,-6.2905432155992e-05,-0.0013573884281218,-0.021260420580321,0.01339967204914,-0.0009058300161114,0.00025998095417702,0.0021112629851782,-37.549744035623,-3.1575533644819,5.2426049376316e-06,0.0096404696074778,-0.0044675581949785,-0.0017549175954751,0.037007642486166,0.0006626197389948,27.951103040868,0.0031704275389702,0.00045703181266934,0.272988500771,50.793203730884,0.0063901758710366,0.0082647573541295,0.00092674877223672,-0.68520983980419,5.9288673697332e-06,10.234514297225,-0.003737858843603,-0.25552342945164,611.56529324922,611.56529324922,621.82154265787,621.82154265787,611.26629325976,616.32046798629,619.89046943523,619.38287439343,610.85840543602,617.87205521038,622.33888697453,617.93593119726,620.44284070082,608.76117425424,617.92347352775,618.44448827379,615.15030055495,611.58431457035,615.41838454917,621.28291291822,620.36584408848,611.5605703287,616.25025686,620.44284070082,622.45721646691,619.89797514889,611.59794652698,616.98379224754,617.88780486208,618.45452781457,610.61887226136,619.23622445843,621.87630921509,615.61875681436,613.6683460002,609.96791418983,617.38337222785,616.78457942236,616.29848650455,608.92368599678,618.73872089947,619.69512615865,613.78847972807,613.6683460002,617.35707227628,617.35707227628,613.44126704763,613.44126704763,19030.872034296,0.004281214895011,909.71910646445,-0.02820709951195,899.10766765948,-0.025222619861686,0
4.2949147224426e-05,790519678.18586,768476799.59303,791437721.2707,0.062463104089687,0.64760436919854,-0.22576307227148,1495684383.3413,2.7066763055587e-06,1.2790120015304e-05,2.5825397515245e-06,1.0004824489649,485.30132975691,485.30132975691,495.63242136678,495.63242136678,484.98859779256,490.06570461859,493.67921187578,493.1596186374,484.59288638092,491.6463591413,496.15728026636,491.72329012769,494.23504026214,482.46762160695,491.68105641809,492.2199252514,488.89694243434,485.30995485071,489.16237995976,495.08456803143,494.15623408974,485.29726340069,490.01261872909,494.23504026214,496.27718468093,493.69883233541,485.32190763886,490.73016223977,491.65967293069,492.21857474748,484.35224720198,493.02033942731,495.68833634416,489.38860172374,487.40712251635,483.68089706161,491.13355206226,490.54703860681,490.04752264621,482.63453856462,492.5074524309,493.48059105326,487.53144392779,487.40712251635,491.10654468991,491.10654468991,487.18218993363,487.18218993363,4.5743287665536,0.0071505528083193,3.4441988113207e-05,0.017937635736328,0.00097840894830019,-28.412949965767,-1.7793289527555,-6.3828534773345e-05,0.0035224291891385,-0.0063180726000386,-0.0020492468039116,0.00048820359089052,0.0020598899228021,71.975199997628,0.0060521055143303,0.0031078759803387,0.014601079414338,0.0012402427209983,-10.299709544022,-0.51233962107674,-6.2930308513843e-05,-0.0013704182907875,-0.02063342739689,0.013320399303921,-0.00090918880516646,0.00025812344028288,0.0020453226550737,-38.143773766874,-3.1543933695615,-3.7270024814436e-07,0.0094942126454351,-0.0044500688247027,-0.0017608912655255,0.036214937077491,0.00064534697177484,27.1906057381,0.003235806787398,0.00046033920329958,0.27383868707652,48.582919728469,0.006392966601241,0.0082545399305351,0.00092068490146505,-0.6996093693639,-2.8951495108594e-05,10.271174491524,-0.0036477237805287,-0.25520244586618,611.48904774464,611.48904774464,621.82013935451,621.82013935451,611.1763157803,616.25342260632,619.86692986352,619.34733662514,610.78060436865,617.83407712903,622.34499825409,617.91100811543,620.42275824988,608.65533959469,617.86877440582,618.40764323914,615.08466042208,611.49767283844,615.3500979475,621.27228601916,620.34395207748,611.48498138843,616.20033671683,620.42275824988,622.46490266867,619.88655032315,611.50962562659,616.91788022751,617.84739091843,618.40629273522,610.53996518971,619.20805741504,621.8760543319,615.57631971147,613.59484050409,609.86861504935,617.32127005,616.73475659454,616.23524063395,608.82225655236,618.69517041863,619.668309041,613.71916191553,613.59484050409,617.29426267764,617.29426267764,613.36990792136,613.36990792136,37571.381817286,0.0042851031642787,909.53385908092,-0.028309657738452,898.89031011262,-0.025301598108497,0
4.2958912849426e-05,790489486.35421,768400053.67814,791393932.59478,0.062463104089687,0.64760436919854,-0.22576307227148,1495716357.9442,2.7084782447091e-06,1.2793035552766e-05,2.5836426690015e-06,1.0004836199088,485.27896850728,485.27896850728,495.62821930925,495.62821930925,484.96275357828,490.04554597984,493.6695932488,493.14703712362,484.57007849399,491.63315957213,496.15493134399,491.71338052296,494.22624420849,482.43818323352,491.66380670064,492.20709368265,488.87706665189,485.28489302715,489.14181420692,495.07810175504,494.14699433831,485.27493926043,489.99649783796,494.22624420849,496.27522347634,493.69220326786,485.29650208328,490.71040519138,491.64594446686,492.20290004424,484.32921775305,493.00954347791,495.68441878135,489.37443663198,487.38536737746,483.65295088871,491.11452530946,490.53105542578,490.02820324006,482.60613443318,492.49290972055,493.47018730324,487.51071216121,487.38536737746,491.08735818387,491.08735818387,487.16083170183,487.16083170183,4.6202465873977,0.0071329815953519,3.4555437091335e-05,0.017933679387204,0.00097379861281637,-28.549793805508,-1.7811847231281,-6.449512719962e-05,0.0035206651973361,-0.0062951068081419,-0.0020580590273295,0.00048846190804498,0.0020533055986159,72.291886150031,0.0060647370533747,0.0031172473180339,0.014659421917352,0.0012387875645661,-10.346964498008,-0.51278728017601,-6.2998030423203e-05,-0.0013776372801614,-0.020524743988933,0.013395620504189,-0.00091274879900184,0.00025794721834668,0.0020303933664502,-37.826689082517,-3.1577503034389,-3.0877460490108e-06,0.0094829137841716,-0.0044654759870072,-0.0017740910117203,0.036342316648148,0.00064152252704616,27.605662599921,0.0032538857142112,0.00046184852729037,0.27498424555603,49.263023663041,0.0063964503973423,0.0082926144597227,0.00092218794060522,-0.69324463722258,-3.954927653285e-05,10.317532068473,-0.0036356151887152,-0.25597347313775,611.47033478535,611.47033478535,621.81958558732,621.81958558732,611.15411985635,616.23691225791,619.86095952687,619.33840340169,610.76144477206,617.8245258502,622.34629762206,617.90474680103,620.41761048656,608.62954951159,617.85517297871,618.39845996072,615.06843292996,611.47625930522,615.33318048499,621.26946803311,620.33836061638,611.4663055385,616.18786411603,620.41761048656,622.46658975441,619.88356954593,611.48786836135,616.90177146945,617.83731074493,618.39426632231,610.52058403112,619.20090975598,621.87578505942,615.56580291005,613.57673365553,609.84431716678,617.30589158753,616.72242170385,616.21956951813,608.79750071125,618.68427599863,619.66155358131,613.70207843928,613.57673365553,617.27872446194,617.27872446194,613.3521979799,613.3521979799,82886.775513562,0.0042860752312787,909.4857468941,-0.028335007463109,898.83431394704,-0.025321046484659,0
4.2978444099426e-05,790428298.14236,768244688.81195,791305544.75072,0.062463104089687,0.64760436919854,-0.22576307227148,1495780040.7482,2.7119817578758e-06,1.2798866162808e-05,2.5861174494737e-06,1.0004859262615,485.23359400728,485.23359400728,495.61974213062,495.61974213062,484.91040315879,490.00469624634,493.65014423365,493.12158851559,484.52384088999,491.60647040291,496.1501993471,491.69330262609,494.2084658642,482.37846400801,491.62887876049,492.18110143458,488.83678874122,485.2341463688,489.10017521064,495.06504419649,494.12832006866,485.2297171956,489.96388954883,494.2084658642,496.27127662611,493.67878888583,485.24502213817,490.67035374406,491.61815519128,492.17117056887,484.28250182523,492.98772324297,495.67651349934,489.34571504721,487.34126833802,483.59625311103,491.07597693213,490.49866339778,489.98906822204,482.54849471958,492.46348261417,493.4491294169,487.46867481068,487.34126833802,491.0484798588,491.0484798588,487.11760830811,487.11760830811,4.5672907378104,0.0070718094186146,3.4660271582763e-05,0.017855336668863,0.00096423796409905,-28.60033265293,-1.779760958175,-6.5162106310399e-05,0.0034934126638981,-0.0062353950125119,-0.0020609286944215,0.0004826101586031,0.002051391144942,69.844783813994,0.0060787128046608,0.0031196178087363,0.014656205346274,0.0012345091164522,-10.356763920303,-0.5120255505609,-6.3026105388134e-05,-0.0013840260893022,-0.020224142942555,0.013353328272473,-0.00091445117926944,0.0002570719760402,0.0020006857134004,-37.852194787108,-3.1562167591641,-5.7840021283899e-06,0.00941241649169,-0.0044568228999326,-0.0017773083431252,0.035944754454569,0.00063367471928714,27.21960429669,0.0032809235492706,0.00046338959001076,0.27541990750236,48.279912718928,0.0063943083742486,0.0082858011908896,0.00091914151571208,-0.70088525410223,-5.5095017956657e-05,10.338698331473,-0.0035920427765138,-0.25581119715503,611.43234350464,611.43234350464,621.81849162799,621.81849162799,611.10915265615,616.2034457437,619.84889373102,619.32033801295,610.72259038735,617.80521990028,622.34894884447,617.89205212345,620.40721536156,608.57721350538,617.82762825785,618.37985093194,615.03553823858,611.43289586616,615.29892470801,621.26379369386,620.32706956602,611.42846669296,616.16263904619,620.40721536156,622.47002612347,619.87753838319,611.44377163553,616.86910324142,617.81690468864,618.36992006624,610.48125132259,619.18647274033,621.87526299671,615.54446454457,613.54001783538,609.79500260839,617.27472642949,616.69741289514,616.18781771941,608.74724421694,618.66223211153,619.64787891427,613.66742430804,613.54001783538,617.24722935616,617.24722935616,613.31635780547,613.31635780547,20735.464124632,0.0042880193852125,909.39803032121,-0.028382937915564,898.73186257461,-0.025358066726034,0
4.3017506599426e-05,790307246.77565,767936361.00502,791129054.38466,0.062463104089687,0.64760436919854,-0.22576307227148,1495906583.235,2.7187617673241e-06,1.2810526194508e-05,2.5909987617308e-06,1.0004904386358,485.14397897092,485.14397897092,495.60282736323,495.60282736323,484.80663047034,489.92279752547,493.61153895883,493.07077109169,484.43236188625,491.5531329652,496.1407814409,491.65353925559,494.17300821418,482.26068530228,491.55913850256,492.12965719648,488.75687778476,485.13341703665,489.01695408956,495.03906179443,494.09103554833,485.14007477894,489.89880730362,494.17300821418,496.26341962062,493.65215980454,485.14309238475,490.58969786433,491.563092511,492.1077965975,484.19020151677,492.94409122087,495.66076508589,489.28891209261,487.25406749811,483.48431370738,490.99895686465,490.43461353113,489.91122387834,482.43478184139,492.40475344934,493.40736510103,487.38545929756,487.25406749811,490.97076633745,490.97076633745,487.03158121051,487.03158121051,4.4855670917824,0.006959291538997,3.487036257288e-05,0.017715139130765,0.0009476679089503,-28.655087926897,-1.7774298386296,-6.6489653588275e-05,0.0034426999901289,-0.0061204283408187,-0.0020668842810951,0.00047394814997934,0.0020463915550185,66.303479032662,0.006099206255978,0.0031232297696556,0.014649741464969,0.0012264626351889,-10.377916877694,-0.51069990782349,-6.3147643789174e-05,-0.0013964517754451,-0.019648068538029,0.013265784425366,-0.0009179852855918,0.00025557904269104,0.0019500943303064,-38.131494875364,-3.1539107485499,-1.0809603907193e-05,0.0092825193642829,-0.0044394248123683,-0.001783857472959,0.035347483173276,0.00062016393132868,26.607904104216,0.0033229052337065,0.00046622945751546,0.27634322829431,46.807455341832,0.0063891185885232,0.0082685736298911,0.00091331700976232,-0.71433051549598,-8.0943941881181e-05,10.373723353039,-0.0035097076736061,-0.25556229557712,611.35739305548,611.35739305548,621.81624144779,621.81624144779,611.02004455491,616.13621161003,619.82495304339,619.28418517625,610.64577597081,617.76654704976,622.35419552546,617.86695334015,620.38642229874,608.47409938684,617.77255258712,618.34307128105,614.97029186932,611.34683112121,615.23036817412,621.25247587899,620.30444963289,611.3534888635,616.11222138818,620.38642229874,622.47683370518,619.8655738891,611.35650646931,616.80311194889,617.77650659556,618.32121068206,610.40361560133,619.15750530543,621.87417917045,615.50232617717,613.46748158267,609.69772779194,617.21237094921,616.64802761569,616.12463796291,608.64819592595,618.6181675339,619.62077918559,613.59887338212,613.46748158267,617.18418042201,617.18418042201,613.24499529507,613.24499529507,35432.658330212,0.0042919077389911,909.24697494883,-0.028474097188248,898.55407187566,-0.025428819626422,0
4.3027272224426e-05,790277516.45383,767860251.2467,791085054.49214,0.062463104089687,0.64760436919854,-0.22576307227148,1495937784.2131,2.7204747587113e-06,1.2813441226307e-05,2.5922210143378e-06,1.000491575227,485.12204180016,485.12204180016,495.59861613441,495.59861613441,484.78107370525,489.90247761581,493.60200796595,493.058121675,484.40990175933,491.53983970756,496.13844580609,491.64375753793,494.16418995539,482.23192477638,491.54180805043,492.11701725468,488.73717277829,485.10855730933,488.99627579662,495.03262160198,494.08174989806,485.11799549348,489.88261993564,494.16418995539,496.26147033413,493.64558376458,485.11803652417,490.56977130865,491.54953836542,492.09203538827,484.16759195668,492.93320372193,495.65685394893,489.27497192742,487.23267855436,483.45693214755,490.97983477875,490.41890227455,489.89196194859,482.40700042932,492.39014987951,493.39706835954,487.36501018571,487.23267855436,490.95147664387,490.95147664387,487.0102674866,487.0102674866,4.5241440101769,0.0069446454889358,3.4985609885247e-05,0.017715439554716,0.00094406025124034,-28.805880842767,-1.7793797189404,-6.7158753766437e-05,0.0034416294337825,-0.0061011019300985,-0.0020758391934735,0.00047423155202541,0.0020392528580995,66.870934230128,0.0061075266885363,0.0031319172610763,0.014705525908311,0.0012251425792306,-10.42684804767,-0.5111866104102,-6.3238329333852e-05,-0.0014036557635094,-0.019550722438559,0.013336660799501,-0.0009216266983023,0.00025548118011853,0.0019387027525298,-38.085883414751,-3.1573982270174,-1.3383902596393e-05,0.0092739785747975,-0.0044549840004369,-0.0017971374800348,0.035451538421192,0.0006172042760506,26.973792131194,0.0033351799183266,0.00046762906411309,0.27749816617103,47.430793810842,0.0063909747648915,0.0083040901692887,0.00091475414666965,-0.70880069811417,-8.9256516753568e-05,10.426391164183,-0.0034987541595023,-0.25634311570939,611.33897603533,611.33897603533,621.81555036959,621.81555036959,610.99800794042,616.11941185098,619.81894220112,619.27505591017,610.6268359945,617.75677394273,622.35538004126,617.8606917731,620.38112419056,608.44885901156,617.7587422856,618.33395148985,614.95410701346,611.3254915445,615.21321003179,621.24955583715,620.29868413323,611.33492972866,616.09955417081,620.38112419056,622.4784045693,619.86251799975,611.33497075934,616.78670554382,617.7664726006,618.30896962344,610.38452619185,619.1501379571,621.8737881841,615.49190616259,613.44961278953,609.67386638272,617.19676901392,616.63583650972,616.10889618376,608.62393466449,618.60708411468,619.61400259471,613.58194442089,613.44961278953,617.16841087905,617.16841087905,613.22720172177,613.22720172177,63757.858775719,0.0042928798237438,909.20700630013,-0.028496622692585,898.50746560435,-0.025446277625665,0
4.3046803474426e-05,790217360.49319,767706560.3711,790996570.08079,0.062463104089687,0.64760436919854,-0.22576307227148,1495999903.1426,2.7238511751903e-06,1.2819271021849e-05,2.5946497943208e-06,1.0004938251959,485.07760343477,485.07760343477,495.59014980298,495.59014980298,484.7294225984,489.8616153823,493.58277260116,493.03267578792,484.36445238234,491.51310393003,496.13374579455,491.62398400245,494.1464382742,482.17365789289,491.50692682257,492.09145269845,488.69737134168,485.05835590025,488.95466726591,495.01964776117,494.06307397345,485.07337089762,489.85003729095,494.1464382742,496.25755092985,493.63231390844,485.06736264057,490.52970884778,491.52214685741,492.06032521203,484.12180171691,492.91131584562,495.64898061288,489.24676187889,487.18938712602,483.401462556,490.94134999275,490.38710469927,489.85311528928,482.35070768447,492.36075524534,493.37627089382,487.32364747276,487.18938712602,490.9126599216,490.9126599216,486.96729565043,486.96729565043,4.4831956429884,0.0068898797686663,3.509043841872e-05,0.017646761184323,0.0009362317973515,-28.846530200793,-1.7781905510732,-6.7820990945225e-05,0.0034166334247977,-0.0060486098145116,-0.0020787635856479,0.00047015677915921,0.002036114743866,65.38857475277,0.0061155501963711,0.0031334048867022,0.014700876031232,0.0012211224953781,-10.437251667646,-0.51052139185918,-6.3305470629146e-05,-0.0014097625913078,-0.019280482386727,0.013291312493672,-0.00092338563371658,0.00025476017258476,0.0019150961134952,-38.082828879476,-3.1562086463745,-1.5820174890923e-05,0.009210317101796,-0.0044467676988002,-0.0018004178216546,0.035164985707494,0.00061085766728857,26.665725971845,0.0033531285321817,0.00046900770489334,0.27793881199715,46.735090586686,0.0063873235955083,0.0082945398114966,0.00091181567935467,-0.71566476438412,-0.00010091884096533,10.447858420307,-0.0034593129849384,-0.25620862284296,611.30163717965,611.30163717965,621.81418354786,621.81418354786,610.95345634328,616.08564912718,619.80680634604,619.2567095328,610.58848612722,617.73713767491,622.35777953943,617.84801774733,620.37047201908,608.39769163777,617.73096056745,618.31548644333,614.92140508656,611.28238964512,615.17870101079,621.24368150605,620.28710771833,611.29740464249,616.07407103582,620.37047201908,622.48158467473,619.85634765332,611.29139638545,616.75374259266,617.74618060229,618.28435895691,610.34583546179,619.1353495905,621.87301435776,615.47079562377,613.4134208709,609.62549630088,617.16538373763,616.61113844414,616.07714903416,608.57474142934,618.58478899022,619.6003046387,613.54768121764,613.4134208709,617.13669366647,617.13669366647,613.19132939531,613.19132939531,16360.578264455,0.0042948240074309,909.13275159916,-0.028540013284107,898.42047280368,-0.025480081194379,0
4.3085865974426e-05,790098104.29744,767400947.33224,790819613.24398,0.062463104089687,0.64760436919854,-0.22576307227148,1496123269.8987,2.7304455909103e-06,1.2830929858026e-05,2.5994599618412e-06,1.0004982539131,484.98961231474,484.98961231474,495.57323101391,495.57323101391,484.62681803629,489.77979305551,493.54452618525,492.98177667099,484.27432425628,491.459592119,496.12438174859,491.58473444214,494.11097457349,482.05838365882,491.43718089275,492.04075238432,488.61822718301,484.9585071816,488.87143974902,494.99379290099,494.0257211872,484.98472355497,489.78490358461,494.11097457349,496.24974115093,493.60591623777,484.96680694106,490.44946305402,491.46776910946,491.99689388372,484.03110625745,492.86748183955,495.63327438177,489.19083816285,487.10359125084,483.2916549032,490.86438619347,490.3240964499,489.77568774042,482.23932387759,492.30199305933,493.33494427189,487.24157034113,487.10359125084,490.8350182797,490.8350182797,486.88161535161,486.88161535161,4.417707684506,0.0067877033910823,3.5299997848095e-05,0.017521546740926,0.00092227549946737,-28.929645162183,-1.7761738998216,-6.9134135065157e-05,0.0033697116385936,-0.0059503280433576,-0.0020847457511583,0.00046395132945606,0.0020283855945663,63.04929702135,0.0061293608273865,0.0031359728877602,0.014692245965325,0.0012134914455481,-10.458716409083,-0.50933107115117,-6.3483368956829e-05,-0.0014216226300079,-0.018770636543277,0.013201527376002,-0.00092698319485612,0.00025350680595731,0.0018736689092601,-38.175402139637,-3.1543788063242,-2.0415788574654e-05,0.0090915343491043,-0.0044312245542962,-0.0018070748059114,0.034718931852031,0.00059961300025094,26.162189154577,0.0033826401856111,0.00047165334130003,0.27880898554511,45.631417748963,0.0063821163731712,0.0082743523086203,0.00090623389464017,-0.72787749969122,-0.00012085780558114,10.490900895905,-0.0033846576724413,-0.25598812381027,611.22767763772,611.22767763772,621.81129633689,621.81129633689,610.86488335927,616.01785837849,619.78259150823,619.21984199397,610.51238957926,617.69765744198,622.36244707157,617.82279976512,620.34903989647,608.2964489818,617.67524621573,618.2788177073,614.85629250599,611.19657250458,615.109505072,621.23185822397,620.26378651018,611.22278887795,616.02296890759,620.34903989647,622.48780647391,619.84398156075,611.20487226404,616.687528377,617.70583443244,618.2349592067,610.26917158043,619.10554716253,621.87133970475,615.42890348583,613.34165657382,609.52972022618,617.10245151645,616.56216177288,616.0137530634,608.47738920057,618.54005838231,619.57300959487,613.47963566411,613.34165657382,617.07308360268,617.07308360268,613.11968067459,613.11968067459,6309.017677362,0.0042987124122113,909.00178596875,-0.028622133608079,898.26566250634,-0.025544536761486,0
4.3163990974426e-05,789862922.11619,766793646.36651,790463248.398,0.062463104089687,0.64760436919854,-0.22576307227148,1496366472.2816,2.7422546049042e-06,1.2854246016966e-05,2.6086280661135e-06,1.0005069272256,484.81644378821,484.81644378821,495.53923679046,495.53923679046,484.42335983952,489.61291529653,493.46862195161,492.87889892928,484.09635756468,491.35125953921,496.10574966041,491.50705242059,494.03965166217,481.83188071529,491.29608977499,491.94070468143,488.46074920664,484.75985249659,488.70275278088,494.94221118758,493.95034155669,484.80892672502,489.65345273057,494.03965166217,496.23420803597,493.55340276531,484.76796562839,490.28498134422,491.36022799037,491.8684917764,483.85251643551,492.77865559381,495.60186930402,489.0804888693,486.93450809956,483.07568148434,490.70839602109,490.20000378321,489.62057256417,482.02041302801,492.18336476999,493.25299757145,487.07916328388,486.93450809956,490.67749345294,490.67749345294,486.70995678544,486.70995678544,4.3213150932946,0.0066046055110229,3.5714178172199e-05,0.017307387303854,0.00089904104375922,-29.10080055705,-1.773208671134,-7.1714241366422e-05,0.0032850939511714,-0.005781914628166,-0.002096882742761,0.0004555409582104,0.0020108612315514,59.783218807224,0.0061542808758982,0.0031410944576924,0.01467986846312,0.0011993930941639,-10.503620588727,-0.50737118993133,-6.3963873378448e-05,-0.0014441155924756,-0.017874333995306,0.013027659685232,-0.00093430701484151,0.00025155194451122,0.0018066415547048,-38.442001266615,-3.1523553671117,-2.8768100206624e-05,0.0088788146761273,-0.004404040766565,-0.0018200039054939,0.034092027965349,0.00058109251578574,25.403234207388,0.0034268546065785,0.00047681665621055,0.28053986106167,44.046150585771,0.006379974939733,0.0082335367202138,0.00089615250536907,-0.74891479287339,-0.00015166759624579,10.576135067319,-0.0032518025205209,-0.25570306148724,611.08260916316,611.08260916316,621.80540216541,621.80540216541,610.68952521447,615.87908067148,619.73478732656,619.14506430423,610.36252293963,617.61742491416,622.37191503536,617.77321779554,620.30581703712,608.09804609024,617.56225514994,618.20687005638,614.72691458159,611.02601787154,614.96891815583,621.20837656253,620.21650693164,611.07509209997,615.91961810552,620.30581703712,622.50037341092,619.81956814026,611.03413100334,616.55114671917,617.62639336532,618.13465715135,610.11868181046,619.04482096877,621.86803467897,615.34665424425,613.20067347451,609.3418468593,616.97456139604,616.46616915816,615.88673793912,608.28657840296,618.44953014494,619.5191629464,613.34532865884,613.20067347451,616.94365882789,616.94365882789,612.97612216039,612.97612216039,3211.3031943869,0.0043064714163819,908.78487962436,-0.028777110138269,898.00632288175,-0.025667287054838,0
4.3320240974426e-05,789263877.93206,765347375.45928,789723629.44069,0.062463104089687,0.64760436919854,-0.22576307227148,1496838999.8863,2.7666517210674e-06,1.2900890931179e-05,2.6267431799258e-06,1.0005247520203,484.3458289256,484.3458289256,495.46717005718,495.46717005718,483.91819806746,489.27902602206,493.28801336386,492.6655082253,483.63288034196,491.13110590408,496.06384691414,491.31068303426,493.88808130817,481.20971934233,491.00180889801,491.68661343323,488.07838843846,484.28262488924,488.35482692288,494.82620007082,493.79349740894,484.37250038171,489.3775305612,493.88808130817,496.19928080922,493.42770866728,484.26090983663,489.95966327551,491.0932756719,491.60256383257,483.3717249661,492.60091630118,495.53310513233,488.7916934418,486.49182061141,482.48871002076,490.38436931672,489.87698272555,489.26687003222,481.41646830928,491.93466917408,493.05475113325,486.6622822819,486.49182061141,490.35148722414,490.35148722414,486.32414551945,486.32414551945,4.3574872748533,0.0062586028455092,3.6531259557046e-05,0.016856171135695,0.00084940962744319,-29.433081811609,-1.7662686407646,-7.6574384184906e-05,0.0031113594328369,-0.005575608868036,-0.0021189907463211,0.00043320164087046,0.001959711314118,62.204718548834,0.0063479026123224,0.0031611355210362,0.014716519199635,0.0011753553607845,-10.584357469361,-0.50300628609899,-6.4455277426621e-05,-0.0014929715319523,-0.016554459137392,0.012776846155008,-0.00094770623459371,0.00024695165989711,0.0016534636752831,-38.947269317357,-3.1477396656558,-4.6290847097179e-05,0.0084653769256194,-0.0043879469141172,-0.0018437028185064,0.03294323222298,0.00053898741436552,26.032893478947,0.0036527765716966,0.00048821348479377,0.28453614340149,46.489873570652,0.0064756899767614,0.0081987683514364,0.00088011167046456,-0.76782896028415,-0.00024399408635065,10.755397380395,-0.0030257715220809,-0.25493903876228,610.68328144869,610.68328144869,621.80462258027,621.80462258027,610.25565059054,615.61647854515,619.62546588694,619.00296074839,609.97033286504,617.46855842717,622.40129943723,617.64813555735,620.22553383125,607.54717186541,617.3392614211,618.02406595632,614.41584096155,610.62007741232,614.69227944597,621.16365259391,620.13094993203,610.7099529048,615.71498308428,620.22553383125,622.53673333231,619.76516119037,610.59836235971,616.2971157986,617.43072819499,617.94001635566,609.70917748919,618.93836882427,621.87055765542,615.12914596488,612.8292731345,608.82616254385,616.7218218398,616.21443524864,615.60432255531,607.75392083237,618.27212169717,619.39220365634,612.99973480499,612.8292731345,616.68893974723,616.68893974723,612.66159804254,612.66159804254,2697.2509587756,0.0043220237859976,908.23254185786,-0.029098193717443,897.36521713029,-0.025906027590761,0
4.3476490974426e-05,788582262.51028,763751828.37321,788965067.47308,0.062463104089687,0.64760436919854,-0.22576307227148,1497291206.634,2.8037555874438e-06,1.2947597248942e-05,2.6440640117992e-06,1.0005463044177,483.73344973134,483.73344973134,495.39298432212,495.39298432212,483.31292831267,488.93806359359,493.08563934938,492.44576832718,483.05911322356,490.90589089245,496.01912473216,491.08688577226,493.72892641461,480.24014497333,490.69531854473,491.38878735808,487.64080380206,483.73128534821,487.99423674673,494.70085761024,493.63227696612,483.85873030626,489.08995525695,493.72892641461,496.16239336264,493.28996230452,483.63484161009,489.62892662996,490.78395847662,491.32812042812,482.7501420171,492.42064609331,495.46009347994,488.44954604375,485.93934969977,481.65794253677,490.04751997036,489.48742905351,488.87973857705,480.49944295059,491.67508752676,492.83040306299,486.16056176005,485.93934969977,490.01371804692,490.01371804692,485.90368082245,485.90368082245,4.2868781139473,0.0058224991744484,3.7462401363428e-05,0.016087558172138,0.00076131363190476,-30.011517280891,-1.751583180442,-8.1915649238965e-05,0.0028567611110569,-0.0056049690593939,-0.0021477045029429,0.00047638193343083,0.0017865881413885,97.388414979431,0.0075570628611113,0.0032258314915823,0.015029625311385,0.0011556691355358,-10.719434740599,-0.49514859603938,-6.2358455184014e-05,-0.0015768269956207,-0.015901724946144,0.012915899094855,-0.00096126586595825,0.00023640531446994,0.0013456901237489,-39.947253953555,-3.1343957575296,-7.9054508913099e-05,0.0079117656782243,-0.0045043259284283,-0.0018870677590755,0.03425075169738,0.00045585262213302,26.738294461171,0.0049193757612754,0.00050557694502031,0.29281692953386,57.895271269668,0.0072209197583971,0.0083775384005519,0.00087344874890766,-0.74010418290118,-0.00060812786704387,11.062321749541,-0.0028317894032157,-0.25426055522377,610.21531359538,610.21531359538,621.87484818615,621.87484818615,609.79479217671,615.41992745763,619.56750321341,618.92763219121,609.5409770876,617.38775475648,622.5009885962,617.5687496363,620.21079027865,606.72200883737,617.17718240877,617.87065122212,614.1226676661,610.21314921224,614.47610061077,621.18272147428,620.11414083016,610.3405941703,615.57181912099,620.21079027865,622.64425722668,619.77182616856,610.11670547413,616.110790494,617.26582234066,617.80998429215,609.23200588114,618.90250995734,621.94195734398,614.93140990779,612.4212135638,608.13980640081,616.52938383439,615.96929291755,615.36160244109,606.98130681463,618.1569513908,619.31226692702,612.64242562409,612.4212135638,616.49558191096,616.49558191096,612.38554468649,612.38554468649,8154.5055858856,0.0043375698693452,906.78851158614,-0.029606712463922,895.75354213987,-0.026221056296855,0
4.3515553474426e-05,788464624.2586,763446045.36118,788783738.96107,0.062463104089687,0.64760436919854,-0.22576307227148,1497403864.995,2.8113688848154e-06,1.2959266788311e-05,2.6489625547813e-06,1.0005513106113,483.6449988829,483.6449988829,495.37579726175,495.37579726175,483.20946076584,488.85345360227,493.04748148374,492.39335209089,482.96866344399,490.85065798479,496.00983620074,491.04787886493,493.69266321454,480.11596679268,490.62351537942,491.33846653185,487.56103353051,483.63051316215,487.90857499487,494.67488102351,493.59389780805,483.76967146489,489.02310953623,493.69266321454,496.15468387196,493.2635636256,483.53345298516,489.54584366699,490.72984077078,491.2627325009,482.65893322737,492.37528105715,495.44426580959,488.39401061253,485.85334526932,481.54394426029,489.96822880706,489.42485028358,488.80105443592,480.38202834697,491.61467674091,492.78913860385,486.0782260792,485.85334526932,489.93367536392,489.93367536392,485.81666725723,485.81666725723,4.4103836382438,0.0057631530510845,3.7931159489683e-05,0.016049061622345,0.00074817481341687,-30.613990572549,-1.7568398114331,-8.4692392582445e-05,0.0028382405562177,-0.0056214086957658,-0.0021825784150117,0.00048631194626993,0.0017284832698931,81.141908033384,0.0077395511781678,0.0032634378394718,0.015250387124515,0.0011515771213261,-10.911367249649,-0.49620834110551,-6.2413295431035e-05,-0.0016088132046176,-0.015797646764596,0.013188602232522,-0.00097534470708255,0.00023554159353223,0.0013020853936295,-40.753758601501,-3.1447923615409,-9.064915996344e-05,0.0078601693498449,-0.0045845865953149,-0.0019382405504128,0.034874759092582,0.0004438923067198,27.071789795524,0.0050901370861744,0.00051200537613801,0.29762816110099,51.89922956718,0.007355140192767,0.0085232392385723,0.00087905635035904,-0.71770228144387,-0.00066580438491492,11.282880597236,-0.0028108024545882,-0.25701838195018,610.14628422049,610.14628422049,621.87708259934,621.87708259934,609.71074610343,615.35473893986,619.54876682133,618.89463742848,609.46994878158,617.35194332238,622.51112153833,617.54916420252,620.19394855213,606.61725213027,617.12480071701,617.83975186944,614.0623188681,610.13179849974,614.40986033246,621.1761663611,620.09518314564,610.27095680248,615.52439487382,620.19394855213,622.65596920955,619.76484896319,610.03473832275,616.04712900458,617.23112610837,617.76401783849,609.16021856496,618.87656639474,621.94555114718,614.89529595012,612.35463060691,608.04522959788,616.46951414465,615.92613562117,615.30233977351,606.88331368456,618.1159620785,619.29042394144,612.57951141679,612.35463060691,616.43496070151,616.43496070151,612.31795259482,612.31795259482,24126.212495119,0.0043414597122035,906.52672912228,-0.029722426848416,895.45261706421,-0.026298773691894,0
4.3593678474426e-05,788225194.09168,762822844.39488,788413632.63004,0.062463104089687,0.64760436919854,-0.22576307227148,1497626669.9073,2.824835671952e-06,1.2982598360848e-05,2.6589601289292e-06,1.000560697534,483.46743483062,483.46743483062,495.34077399266,495.34077399266,483.00038210926,488.67991709548,492.97003311379,492.28618418597,482.7861877792,490.73764327468,495.99100469698,490.96846577014,493.61866335078,479.8783054756,490.47663232894,491.23653037838,487.39878003023,483.42604549586,487.73319129008,494.62209199979,493.51548826266,483.58911365751,488.88641251645,493.61866335078,496.13906847231,493.20973214079,483.32938184196,489.37525492838,490.62019908029,491.12895972096,482.47583098679,492.28247453452,495.41207109288,488.28127804177,485.68044646745,481.32049080393,489.8059153978,489.29844952372,488.64052695341,480.1539914741,491.49119601351,492.70531620185,485.91145829645,485.68044646745,489.7697768747,489.7697768747,485.63920708165,485.63920708165,4.330291979179,0.005594822153807,3.8300415884044e-05,0.015817230335141,0.00072684578761307,-30.731034472163,-1.7508711052047,-8.7177047290409e-05,0.0027539581337385,-0.0055732252106279,-0.0021906639158329,0.00048418922314998,0.0016743992171843,69.485101860238,0.0078743958522397,0.0032783967739156,0.01527256541165,0.0011383287196256,-10.935606571098,-0.49339049705491,-6.2459102678669e-05,-0.0016296962724945,-0.015356938758384,0.013068395261657,-0.00098071148232199,0.00023315768130061,0.0012398551666172,-40.945642556019,-3.1381953109368,-9.9665977846612e-05,0.0076535120664201,-0.0045859536328337,-0.0019475573784234,0.034515321108161,0.00042593820487391,25.998535652835,0.0051878802790438,0.00051907529345531,0.29958453176439,47.493478646166,0.0074804384528661,0.00851502915204,0.00087166487432958,-0.74007550743131,-0.00070263900517466,11.364938658397,-0.0027339233240924,-0.25626925694399,610.00118400534,610.00118400534,621.87452316738,621.87452316738,609.53413128398,615.2136662702,619.50378228851,618.81993336069,609.31993695391,617.2713924494,622.5247538717,617.50221494486,620.1524125255,606.41205465032,617.01038150366,617.7702795531,613.93252920494,609.95979467057,614.2669404648,621.15584117451,620.04923743738,610.12286283223,615.42016169117,620.1524125255,622.67281764703,619.74348131551,609.86313101668,615.9090041031,617.15394825501,617.66270889567,609.00958016151,618.81622370924,621.94582026759,614.81502721649,612.21419564217,607.85423997865,616.33966457251,615.83219869844,615.17427612813,606.68774064882,618.02494518823,619.23906537657,612.44520747117,612.21419564217,616.30352604942,616.30352604942,612.17295625637,612.17295625637,10417.04278843,0.0043492352092068,906.15239837117,-0.029919672569747,895.01616592453,-0.026440558060894,0
