time,H_1,H_2,H_3,cry_1,cry_2,cry_3,disloc_density,disp_x,disp_y,disp_z,fp_yy,gd_0,gd_1,gd_10,gd_11,gd_12,gd_13,gd_14,gd_15,gd_16,gd_17,gd_18,gd_19,gd_2,gd_20,gd_21,gd_22,gd_23,gd_24,gd_25,gd_26,gd_27,gd_28,gd_29,gd_3,gd_30,gd_31,gd_32,gd_33,gd_34,gd_35,gd_36,gd_37,gd_38,gd_39,gd_4,gd_40,gd_41,gd_42,gd_43,gd_44,gd_45,gd_46,gd_47,gd_5,gd_6,gd_7,gd_8,gd_9,slip_increment_0,slip_increment_1,slip_increment_10,slip_increment_11,slip_increment_12,slip_increment_13,slip_increment_14,slip_increment_15,slip_increment_16,slip_increment_17,slip_increment_18,slip_increment_19,slip_increment_2,slip_increment_20,slip_increment_21,slip_increment_22,slip_increment_23,slip_increment_24,slip_increment_25,slip_increment_26,slip_increment_27,slip_increment_28,slip_increment_29,slip_increment_3,slip_increment_30,slip_increment_31,slip_increment_32,slip_increment_33,slip_increment_34,slip_increment_35,slip_increment_36,slip_increment_37,slip_increment_38,slip_increment_39,slip_increment_4,slip_increment_40,slip_increment_41,slip_increment_42,slip_increment_43,slip_increment_44,slip_increment_45,slip_increment_46,slip_increment_47,slip_increment_5,slip_increment_6,slip_increment_7,slip_increment_8,slip_increment_9,slip_resistance_0,slip_resistance_1,slip_resistance_10,slip_resistance_11,slip_resistance_12,slip_resistance_13,slip_resistance_14,slip_resistance_15,slip_resistance_16,slip_resistance_17,slip_resistance_18,slip_resistance_19,slip_resistance_2,slip_resistance_20,slip_resistance_21,slip_resistance_22,slip_resistance_23,slip_resistance_24,slip_resistance_25,slip_resistance_26,slip_resistance_27,slip_resistance_28,slip_resistance_29,slip_resistance_3,slip_resistance_30,slip_resistance_31,slip_resistance_32,slip_resistance_33,slip_resistance_34,slip_resistance_35,slip_resistance_36,slip_resistance_37,slip_resistance_38,slip_resistance_39,slip_resistance_4,slip_resistance_40,slip_resistance_41,slip_resistance_42,slip_resistance_43,slip_resistance_44,slip_resistance_45,slip_resistance_46,slip_resistance_47,slip_resistance_5,slip_resistance_6,slip_resistance_7,slip_resistance_8,slip_resistance_9,sliprate,strain_eff,strain_yy,stress_vm,stress_xx,stress_yy,stress_zz,total_twin_volume_fraction
3.125e-07,806373283.54696,812883986.28892,805631619.05302,0.062463104089687,0.64760436919854,-0.22576307227148,20000000,1.795247758008e-08,9.3040977766007e-08,1.6614703172674e-08,1,497.8381290654,497.8381290654,497.60989452589,497.60989452589,498.0147925931,499.31988138759,496.99692805453,497.68145804969,498.85651113626,499.97661498538,498.14672416787,498.02697135218,498.77033911602,497.21525971269,498.84488714585,497.16742613136,497.55207312991,498.64126710161,499.54586862849,497.20190556616,497.5750304431,499.21312615579,500.0390471468,498.77033911602,497.90480848482,497.9341224281,497.43876596517,498.98643614112,496.84943208781,497.86471738481,498.46047299781,499.68802514728,498.4015771665,498.03371922329,496.79060342315,497.00331758264,498.69633134834,496.82927547541,497.72194448719,497.45551108497,498.90346161811,497.68116031197,497.52897191327,496.79060342315,498.2924716568,498.2924716568,499.59767461884,499.59767461884,7.8830381641847e-41,7.852856389919e-45,-2.8343420615471e-46,2.0635951530665e-42,3.3829961580951e-45,-4.6893904022554e-40,-8.8623456072092e-41,-6.1857521460637e-47,5.1043587153934e-44,-1.8426694447172e-44,1.251118891239e-42,1.6914551839275e-44,3.8892298026052e-42,4.7734224178317e-40,7.1696950834581e-43,-1.6188528372334e-43,1.146399072608e-43,4.8085927856221e-45,-2.1593861070467e-40,-3.4869153110641e-41,-3.7685099793904e-49,-6.2731861776197e-45,-2.6973746756231e-45,-3.147064199731e-43,1.724689571032e-43,2.0854224158419e-44,1.1288822294833e-45,-5.3795690920632e-40,-1.2730570039756e-40,-1.4825419333556e-45,4.9355666758923e-44,-3.2965446406517e-44,3.7264311951403e-42,9.989123964363e-43,-6.3721480193996e-47,2.4508176714788e-40,3.5724888827956e-43,-2.6632488498978e-44,3.6915805165725e-42,4.6254006409218e-40,3.8077348776714e-43,-4.2437170434925e-43,9.7506270202812e-46,-4.0602816585897e-41,-4.1384265013086e-44,1.4240209535903e-40,1.6229748525907e-45,-1.046156174752e-41,622.36065803343,622.36065803343,622.13242349392,622.13242349392,622.53732156113,623.84241035563,621.51945702256,622.20398701773,623.3790401043,624.49914395341,622.6692531359,622.54950032022,623.29286808405,621.73778868073,623.36741611389,621.6899550994,622.07460209794,623.16379606964,624.06839759653,621.7244345342,622.09755941114,623.73565512383,624.56157611484,623.29286808405,622.42733745286,622.45665139613,621.96129493321,623.50896510916,621.37196105585,622.38724635285,622.98300196584,624.21055411532,622.92410613453,622.55624819132,621.31313239118,621.52584655067,623.21886031638,621.35180444344,622.24447345523,621.97804005301,623.42599058615,622.20368928001,622.0515008813,621.31313239118,622.81500062483,622.81500062483,624.12020358688,624.12020358688,0,3.6116065422401e-05,3.1249491906873e-05,7.4224815977621,-1.3613214304588e-06,7.3420077960542,-1.1941186747121e-06,0
9.375e-07,806373283.54696,812883986.28891,805631619.05302,0.062463104089687,0.64760436919854,-0.22576307227148,20000000,5.0514637521382e-08,2.7912290859363e-07,4.8565292430882e-08,1,497.8381290654,497.8381290654,497.60989452589,497.60989452589,498.0147925931,499.31988138759,496.99692805453,497.68145804969,498.85651113626,499.97661498538,498.14672416787,498.02697135218,498.77033911602,497.21525971269,498.84488714585,497.16742613136,497.55207312991,498.64126710161,499.54586862849,497.20190556616,497.5750304431,499.21312615579,500.0390471468,498.77033911602,497.90480848482,497.9341224281,497.43876596517,498.98643614112,496.84943208781,497.86471738481,498.46047299781,499.68802514728,498.4015771665,498.03371922329,496.79060342315,497.00331758264,498.69633134834,496.82927547541,497.72194448719,497.45551108497,498.90346161811,497.68116031197,497.52897191327,496.79060342315,498.2924716568,498.2924716568,499.59767461884,499.59767461884,2.7505897873173e-31,2.7400207582588e-35,-9.8975806080326e-37,7.2017854036756e-33,1.1806228195703e-35,-1.6366757164356e-30,-3.0924129410755e-31,-2.1598685102072e-37,1.7814548118798e-34,-6.4357281709454e-35,4.3662826493048e-33,5.9014303263718e-35,1.3568002732277e-32,1.6656248003254e-30,2.5021229944935e-33,-5.6529699195371e-34,3.9995192874474e-34,1.6781412395529e-35,-7.5372756545616e-31,-1.216818837628e-31,-1.3171743978159e-39,-2.1939346962834e-35,-9.4209832179067e-36,-1.0983334098398e-33,6.01998466749e-34,7.2783920263402e-35,3.9396056553453e-36,-1.8774166555634e-30,-4.4417603318554e-31,-5.1756693468238e-36,1.7224020602382e-34,-1.1520380645706e-34,1.3003075264218e-32,3.4853027194844e-33,-2.2276683800011e-37,8.5519912917216e-31,1.2467573058461e-33,-9.3017934103917e-35,1.2880260306812e-32,1.6139557475669e-30,1.3295648265221e-33,-1.4816351326355e-33,3.4012200015134e-36,-1.4162276613748e-31,-1.4444527605491e-34,4.9691160040405e-31,5.6638075063032e-36,-3.6522297990222e-32,622.36065803343,622.36065803343,622.13242349392,622.13242349392,622.53732156113,623.84241035563,621.51945702256,622.20398701773,623.3790401043,624.49914395341,622.6692531359,622.54950032022,623.29286808405,621.73778868073,623.36741611389,621.6899550994,622.07460209794,623.16379606964,624.06839759653,621.7244345342,622.09755941114,623.73565512383,624.56157611484,623.29286808405,622.42733745286,622.45665139613,621.96129493321,623.50896510916,621.37196105585,622.38724635285,622.98300196584,624.21055411532,622.92410613453,622.55624819132,621.31313239118,621.52584655067,623.21886031638,621.35180444344,622.24447345523,621.97804005301,623.42599058615,622.20368928001,622.0515008813,621.31313239118,622.81500062483,622.81500062483,624.12020358688,624.12020358688,1.806519068407e-36,0.00010834646514263,9.3745427380435e-05,22.270461523758,-1.2256973652953e-05,22.029056488233,-1.0805867375083e-05,0
2.1875e-06,806373283.54696,812883986.28892,805631619.05302,0.062463104089687,0.64760436919854,-0.22576307227148,20000000,1.1949957374082e-07,6.5128667067026e-07,1.1427183682736e-07,1,497.8381290654,497.8381290654,497.60989452589,497.60989452589,498.0147925931,499.31988138759,496.99692805453,497.68145804969,498.85651113626,499.97661498538,498.14672416787,498.02697135218,498.77033911601,497.21525971269,498.84488714585,497.16742613136,497.55207312991,498.64126710161,499.54586862849,497.20190556616,497.5750304431,499.21312615579,500.0390471468,498.77033911601,497.90480848482,497.9341224281,497.43876596517,498.98643614112,496.84943208781,497.86471738481,498.46047299781,499.68802514728,498.4015771665,498.03371922329,496.79060342315,497.00331758264,498.69633134834,496.82927547541,497.72194448719,497.45551108497,498.90346161811,497.68116031197,497.52897191327,496.79060342315,498.2924716568,498.2924716568,499.59767461884,499.59767461884,6.3034072584835e-24,6.2790147395528e-28,-2.2717907882245e-29,1.6510364664185e-25,2.7065493255944e-28,-3.7526696790473e-23,-7.0872951756563e-24,-4.9565681705354e-30,4.0843921309035e-27,-1.4776904674067e-27,1.0009770518594e-25,1.3521841820834e-27,3.1081813602822e-25,3.8173068065611e-23,5.7359992798404e-26,-1.2974790535919e-26,9.16299414347e-27,3.8471128717288e-28,-1.7284934262491e-23,-2.7892041622901e-24,-3.0288083896558e-32,-5.0509513430467e-28,-2.1631744279659e-28,-2.5181200273072e-26,1.3805432729598e-26,1.6687960409706e-27,9.0312210398808e-29,-4.3040001771017e-23,-1.0177830104431e-23,-1.1873256654925e-28,3.9483431924574e-27,-2.6482964344591e-27,2.980147518109e-25,7.9864129518842e-26,-5.1246415438184e-30,1.960040430973e-23,2.8581734435225e-26,-2.1358049689813e-27,2.9514455056779e-25,3.6988045655188e-23,3.0512475535486e-26,-3.3995080522594e-26,7.789774264615e-29,-3.2431918663351e-24,-3.3122566145705e-27,1.1389116174195e-23,1.2983364151247e-28,-8.3784997052936e-25,622.36065803343,622.36065803343,622.13242349392,622.13242349392,622.53732156113,623.84241035563,621.51945702256,622.20398701773,623.3790401043,624.49914395341,622.6692531359,622.54950032022,623.29286808405,621.73778868073,623.36741611389,621.6899550994,622.07460209794,623.16379606964,624.06839759653,621.7244345342,622.09755941114,623.73565512383,624.56157611484,623.29286808405,622.42733745286,622.45665139613,621.96129493321,623.50896510916,621.37196105585,622.38724635285,622.98300196584,624.21055411532,622.92410613453,622.55624819132,621.31313239118,621.52584655067,623.21886031638,621.35180444344,622.24447345523,621.97804005301,623.42599058615,622.20368928001,622.0515008813,621.31313239118,622.81500062483,622.81500062483,624.12020358688,624.12020358688,6.3044091956816e-27,0.00025280034241879,0.00021872510593597,51.978490971556,-6.6829179133097e-05,51.415288893377,-5.878182431899e-05,0
4.6875e-06,806373283.54696,812883986.28892,805631619.05302,0.062463104089687,0.64760436919854,-0.22576307227148,20000000,2.6092607018001e-07,1.3956138097763e-06,2.3399853753057e-07,1,497.8381290654,497.8381290654,497.60989452589,497.60989452589,498.0147925931,499.31988138759,496.99692805453,497.68145804969,498.85651113626,499.97661498538,498.14672416787,498.02697135218,498.77033911602,497.21525971269,498.84488714585,497.16742613136,497.55207312991,498.64126710161,499.54586862849,497.20190556616,497.5750304431,499.21312615579,500.0390471468,498.77033911602,497.90480848482,497.9341224281,497.43876596517,498.98643614112,496.84943208781,497.86471738481,498.46047299781,499.68802514728,498.4015771665,498.03371922329,496.79060342315,497.00331758264,498.69633134834,496.82927547541,497.72194448719,497.45551108497,498.90346161811,497.68116031197,497.52897191327,496.79060342315,498.2924716568,498.2924716568,499.59767461884,499.59767461884,2.6343124707583e-17,2.6239791102289e-21,-9.5244455368548e-23,6.9053021004272e-19,1.1319304441029e-21,-1.5699585671441e-16,-2.962375613334e-17,-2.0772139266695e-23,1.7085435331093e-20,-6.1993650335319e-21,4.186412653138e-19,5.6491860918312e-21,1.298018422327e-18,1.5955475444928e-16,2.3988435756755e-19,-5.4392541588488e-20,3.8272799339932e-20,1.6089482240208e-21,-7.2338018045623e-17,-1.1662250461338e-17,-1.2744234996651e-25,-2.1302840613787e-21,-9.0755919394401e-22,-1.0533016250065e-19,5.7776674138666e-20,6.9812287011894e-21,3.7768357385205e-22,-1.8000649136633e-16,-4.2525466064585e-17,-4.9724356319861e-22,1.6510835682357e-20,-1.1136606852374e-20,1.2457032430466e-18,3.3370838128608e-19,-2.1581154411847e-23,8.1931991778033e-17,1.195347277434e-19,-8.9607164973377e-21,1.2332421025033e-18,1.5459440969539e-16,1.278792694421e-19,-1.4241559496697e-19,3.2516156263057e-22,-1.3534612055337e-17,-1.3859824106125e-20,4.7610722358502e-17,5.4292400714283e-22,-3.5089260829185e-18,622.36065803343,622.36065803343,622.13242349392,622.13242349392,622.53732156113,623.84241035563,621.51945702256,622.20398701773,623.3790401043,624.49914395341,622.6692531359,622.54950032022,623.29286808405,621.73778868073,623.36741611389,621.6899550994,622.07460209794,623.16379606964,624.06839759653,621.7244345342,622.09755941114,623.73565512383,624.56157611484,623.29286808405,622.42733745286,622.45665139613,621.96129493321,623.50896510916,621.37196105585,622.38724635285,622.98300196584,624.21055411532,622.92410613453,622.55624819132,621.31313239118,621.52584655067,623.21886031638,621.35180444344,622.24447345523,621.97804005301,623.42599058615,622.20368928001,622.0515008813,621.31313239118,622.81500062483,622.81500062483,624.12020358688,624.12020358688,1.4452178540507e-19,0.0005416804343331,0.00046863570124223,111.44284920849,-0.00030731018676945,110.23631351147,-0.00027035758972231,0
7.1875e-06,806373283.54696,812883986.28892,805631619.05302,0.062463104089687,0.64760436919854,-0.22576307227148,20000000,4.028455003176e-07,2.1399404237062e-06,3.4526194638118e-07,1,497.8381290654,497.8381290654,497.60989452589,497.60989452589,498.0147925931,499.31988138759,496.99692805453,497.68145804969,498.85651113626,499.97661498538,498.14672416787,498.02697135218,498.77033911601,497.21525971269,498.84488714585,497.16742613136,497.55207312991,498.64126710161,499.54586862849,497.20190556616,497.5750304431,499.21312615579,500.0390471468,498.77033911601,497.90480848482,497.9341224281,497.43876596517,498.98643614112,496.84943208781,497.86471738481,498.46047299781,499.68802514728,498.4015771665,498.03371922329,496.79060342315,497.00331758264,498.69633134834,496.82927547541,497.72194448719,497.45551108497,498.90346161811,497.68116031197,497.52897191327,496.79060342315,498.2924716568,498.2924716568,499.59767461884,499.59767461884,1.3634081585215e-13,1.357988347828e-17,-4.9451242011047e-19,3.5766404493859e-15,5.8626138489798e-18,-8.1339672551126e-13,-1.5334407077768e-13,-1.0780686950311e-19,8.8509780226369e-17,-3.2208901551696e-17,2.168338062989e-15,2.9228228406674e-17,6.7130961112506e-15,8.25903277164e-13,1.2423965837889e-15,-2.8238616891239e-16,1.9797497834882e-16,8.3332989601671e-18,-3.7491404184462e-13,-6.0388109686336e-14,-6.640642488822e-22,-1.1126049180562e-17,-4.7154621866774e-18,-5.4562559911165e-16,2.9944832268216e-16,3.6168186168306e-17,1.9560388401536e-18,-9.3233190208494e-13,-2.2004445829277e-13,-2.5788959276862e-18,8.5504679745987e-17,-5.7995757546478e-17,6.4484990617254e-15,1.7268279917393e-15,-1.1254924742152e-19,4.2413951417574e-13,6.191063659673e-16,-4.6557380315214e-17,6.3815898027299e-15,8.001896319919e-13,6.6371530408987e-16,-7.388638717499e-16,1.6808975657213e-18,-6.994982690302e-14,-7.1821910290014e-17,2.4648256454421e-13,2.8116320455368e-18,-1.8199020394301e-14,622.36065803343,622.36065803343,622.13242349392,622.13242349392,622.53732156113,623.84241035563,621.51945702256,622.20398701773,623.3790401043,624.49914395341,622.6692531359,622.54950032022,623.29286808405,621.73778868073,623.36741611389,621.6899550994,622.07460209794,623.16379606964,624.06839759653,621.7244345342,622.09755941114,623.73565512383,624.56157611484,623.29286808405,622.42733745286,622.45665139613,621.96129493321,623.50896510916,621.37196105585,622.38724635285,622.98300196584,624.21055411532,622.92410613453,622.55624819132,621.31313239118,621.52584655067,623.21886031638,621.35180444344,622.24447345523,621.97804005301,623.42599058615,622.20368928001,622.0515008813,621.31313239118,622.81500062483,622.81500062483,624.12020358688,624.12020358688,6.0437185094273e-13,0.00083052372870957,0.00071848133443521,170.97164606331,-0.00072258206484186,169.12212315918,-0.00063539736115538,0
9.6875e-06,806373283.54696,812883986.28891,805631619.05301,0.062463104089687,0.64760436919854,-0.22576307227148,20000000,5.5706122379856e-07,2.8842665158284e-06,4.5398495464051e-07,1,497.83812906539,497.83812906539,497.60989452589,497.60989452589,498.0147925931,499.31988138759,496.99692805453,497.68145804969,498.85651113626,499.97661498538,498.14672416787,498.02697135218,498.77033911601,497.21525971269,498.84488714585,497.16742613136,497.55207312991,498.64126710161,499.54586862849,497.20190556616,497.5750304431,499.21312615579,500.0390471468,498.77033911601,497.90480848482,497.9341224281,497.43876596517,498.98643614112,496.84943208781,497.86471738481,498.46047299781,499.68802514728,498.4015771665,498.03371922329,496.79060342314,497.00331758264,498.69633134834,496.82927547541,497.72194448719,497.45551108497,498.90346161811,497.68116031197,497.52897191327,496.79060342314,498.2924716568,498.2924716568,499.59767461884,499.59767461884,5.3521669586643e-11,5.3306137031717e-15,-1.9474196397006e-16,1.4051187853458e-12,2.3030813411652e-15,-3.1964026773921e-10,-6.0205991832436e-11,-4.2438046456608e-17,3.4777774802799e-14,-1.2692534356821e-14,8.5183926230359e-13,1.1470020277891e-14,2.6333647192672e-12,3.2426038239798e-10,4.880479215958e-13,-1.1119649439648e-13,7.7674112244228e-14,3.2736956677116e-15,-1.4738098263588e-10,-2.3717346321054e-11,-2.6244575890331e-19,-4.4071741251067e-15,-1.8583100964834e-15,-2.1437830059622e-13,1.1771633514903e-13,1.4212368776591e-14,7.6837509567723e-16,-3.6626710850441e-10,-8.6361044436432e-11,-1.0144775135379e-15,3.3585830678943e-14,-2.290739293067e-14,2.5319116242623e-12,6.7776032688586e-13,-4.4519048058086e-17,1.6653641582016e-10,2.4320951421363e-13,-1.8347526795167e-14,2.5046960247167e-12,3.1415015902368e-10,2.6127673118396e-13,-2.9074700078767e-13,6.5906720662486e-16,-2.7420404043705e-11,-2.8229308726771e-14,9.6786078719759e-11,1.1043946021741e-15,-7.1592240131378e-12,622.36065803343,622.36065803343,622.13242349392,622.13242349392,622.53732156113,623.84241035563,621.51945702256,622.20398701773,623.3790401043,624.49914395341,622.6692531359,622.54950032022,623.29286808405,621.73778868072,623.36741611389,621.6899550994,622.07460209794,623.16379606964,624.06839759653,621.7244345342,622.09755941114,623.73565512383,624.56157611484,623.29286808405,622.42733745286,622.45665139613,621.96129493321,623.50896510916,621.37196105585,622.38724635285,622.98300196584,624.21055411532,622.92410613453,622.55624819132,621.31313239118,621.52584655067,623.21886031638,621.35180444344,622.24447345523,621.97804005301,623.42599058615,622.20368928001,622.0515008813,621.31313239118,622.81500062483,622.81500062483,624.12020358688,624.12020358688,3.1299800497919e-09,0.0011193303018695,0.00096826204252644,230.56492929392,-0.0013127558932523,228.07276383798,-0.0011538511836037,0
1.21875e-05,806373283.54689,812883986.28872,805631619.05287,0.062463104089687,0.64760436919854,-0.22576307227148,20000000,7.1558309245579e-07,3.6285920868567e-06,5.6782498146007e-07,1.0000000000002,497.83812906535,497.83812906535,497.60989452587,497.60989452587,498.01479259303,499.31988138753,496.9969280545,497.68145804965,498.85651113621,499.97661498534,498.14672416786,498.02697135216,498.77033911599,497.21525971263,498.8448871458,497.16742613133,497.55207312986,498.64126710154,499.54586862843,497.20190556614,497.57503044307,499.21312615574,500.03904714676,498.77033911599,497.90480848481,497.93412242808,497.43876596511,498.98643614106,496.84943208778,497.86471738477,498.46047299776,499.68802514725,498.40157716648,498.03371922325,496.79060342309,497.00331758258,498.69633134829,496.82927547537,497.72194448714,497.45551108491,498.90346161807,497.68116031194,497.52897191322,496.79060342309,498.29247165674,498.29247165674,499.59767461879,499.59767461879,5.2943671803163e-09,5.2727765457525e-13,-1.9325120669636e-14,1.3910137943158e-10,2.2798653281975e-13,-3.1651977417045e-08,-5.9565362270709e-09,-4.2096264894389e-15,3.4434447883067e-12,-1.2603756822374e-12,8.4327552680601e-11,1.1342438432574e-12,2.6030396330352e-10,3.2080367519284e-08,4.8310781478626e-11,-1.1033616014719e-11,7.6793361411511e-12,3.2407205495575e-13,-1.4599274976769e-08,-2.3472633956147e-09,-2.6135917825284e-17,-4.3987678966315e-13,-1.8454072424081e-13,-2.1224941270266e-11,1.1660913291224e-11,1.4072996081418e-12,7.6059069418495e-14,-3.6258159002852e-08,-8.5409644897971e-09,-1.0056120912905e-13,3.3243226847559e-12,-2.27995773016e-12,2.5050695153055e-10,6.7032247114504e-11,-4.4373130105316e-15,1.647746632515e-08,2.4075507166282e-11,-1.821986748794e-12,2.4772066039883e-10,3.1078665156648e-08,2.5917457000329e-11,-2.8830055205721e-11,6.5117848818017e-14,-2.7085877895455e-09,-2.7959093031533e-12,9.5767974296263e-09,1.0931302423417e-13,-7.0968153154441e-10,622.36065803338,622.36065803338,622.1324234939,622.1324234939,622.53732156107,623.84241035557,621.51945702253,622.20398701769,623.37904010425,624.49914395337,622.66925313589,622.5495003202,623.29286808402,621.73778868067,623.36741611384,621.68995509937,622.0746020979,623.16379606958,624.06839759647,621.72443453417,622.09755941111,623.73565512378,624.56157611479,623.29286808402,622.42733745285,622.45665139611,621.96129493315,623.5089651091,621.37196105581,622.3872463528,622.98300196579,624.21055411529,622.92410613452,622.55624819129,621.31313239113,621.52584655061,623.21886031633,621.3518044434,622.24447345518,621.97804005295,623.4259905861,622.20368927998,622.05150088125,621.31313239113,622.81500062478,622.81500062478,624.12020358682,624.12020358682,1.229487147974e-06,0.0014081002301166,0.001217977862487,290.22274665703,-0.0020778692689738,287.0882816554,-0.0018255550640761,0
1.34375e-05,806373283.54352,812883986.27901,805631619.04552,0.062463104089687,0.64760436919854,-0.22576307227148,20000000,7.8018238721115e-07,4.0007546770837e-06,6.3003619861246e-07,1.0000000000011,497.83812906307,497.83812906307,497.60989452502,497.60989452502,498.01479258986,499.31988138461,496.99692805297,497.68145804776,498.85651113369,499.97661498341,498.14672416728,498.02697135094,498.77033911464,497.21525970968,498.84488714341,497.16742612967,497.5520731275,498.64126709837,499.5458686255,497.20190556496,497.57503044159,499.21312615308,500.03904714448,498.77033911464,497.90480848427,497.93412242712,497.43876596206,498.98643613821,496.84943208586,497.8647173825,498.46047299535,499.68802514562,498.40157716573,498.03371922168,496.79060342052,497.00331757964,498.69633134567,496.8292754734,497.72194448468,497.4555110821,498.90346161602,497.6811603105,497.52897191092,496.79060342052,498.29247165407,498.29247165407,499.59767461593,499.59767461593,3.7368327549679e-08,3.7215022444001e-12,-1.3661573169283e-13,9.8217351029219e-10,1.6097456936219e-12,-2.2352012157328e-07,-4.2045406180746e-08,-2.9753268276055e-14,2.4315687022249e-11,-8.912970925324e-12,5.9541931567443e-10,8.0043281423265e-12,1.8365947164087e-09,2.2644332875019e-07,3.4110004715551e-10,-7.799706222348e-11,5.418685959497e-11,2.2881860902754e-12,-1.031151316296e-07,-1.6571329015622e-08,-1.8508872773264e-16,-3.1185296347782e-12,-1.3050472748662e-12,-1.4987412078813e-10,8.2362193847401e-11,9.9378894640674e-12,5.3701694857931e-13,-2.5600927213114e-07,-6.0276668520855e-08,-7.105123181659e-13,2.3470616434547e-11,-1.614157249169e-11,1.768287850669e-09,4.730803885801e-10,-3.143772032242e-14,1.1631307190747e-07,1.6998863600346e-10,-1.2884746714e-11,1.7482843766337e-09,2.1936752879221e-07,1.8318199171611e-10,-2.0373128391165e-10,4.5933828558014e-13,-1.910404621401e-08,-1.9746111216259e-11,6.7603631080512e-08,7.7178051071164e-13,-5.0142806862915e-09,622.36065803111,622.36065803111,622.13242349306,622.13242349306,622.53732155789,623.84241035265,621.51945702101,622.20398701579,623.37904010172,624.49914395144,622.66925313532,622.54950031898,623.29286808268,621.73778867771,623.36741611145,621.6899550977,622.07460209553,623.16379606641,624.06839759353,621.72443453299,622.09755940963,623.73565512112,624.56157611251,623.29286808268,622.42733745231,622.45665139515,621.9612949301,623.50896510625,621.37196105389,622.38724635053,622.98300196339,624.21055411365,622.92410613376,622.55624818971,621.31313238856,621.52584654767,623.21886031371,621.35180444144,622.24447345271,621.97804005014,623.42599058405,622.20368927854,622.05150087896,621.31313238856,622.81500062211,622.81500062211,624.12020358397,624.12020358397,0.00012169897733877,0.0015524714848201,0.0013428114593076,320.0758703452,-0.0025259551077118,316.62038377904,-0.0022187409796429,0
1.46875e-05,806373283.51976,812883986.21046,805631618.99362,0.062463104089687,0.64760436919854,-0.22576307227148,20000000,8.4018260875663e-07,4.3729171379623e-06,6.9722227292715e-07,1.000000000006,497.838129047,497.838129047,497.60989451907,497.60989451907,498.01479256741,499.31988136401,496.99692804224,497.68145803436,498.85651111587,499.97661496977,498.14672416324,498.02697134232,498.77033910515,497.21525968884,498.84488712654,497.16742611792,497.55207311081,498.64126707596,499.54586860475,497.20190555665,497.57503043112,499.21312613433,500.03904712839,498.77033910515,497.90480848047,497.93412242033,497.43876594053,498.98643611805,496.84943207232,497.86471736647,498.46047297838,499.68802513409,498.40157716039,498.03371921055,496.79060340236,497.00331755889,498.69633132717,496.82927545951,497.72194446728,497.45551106224,498.90346160154,497.6811603003,497.52897189473,496.79060340236,498.29247163521,498.29247163521,499.59767459577,499.59767459577,2.2166758183472e-07,2.2075405816119e-11,-8.116846973052e-13,5.8284822954272e-09,9.5524910149841e-12,-1.3265905418083e-06,-2.4943269365538e-07,-1.7674050060921e-13,1.4430831384021e-10,-5.297280938172e-11,3.5333348780414e-09,4.7473568792164e-11,1.0890666451957e-08,1.3433494281498e-06,2.0240810315934e-09,-4.6339206060052e-10,3.2134422777177e-10,1.3578518130432e-11,-6.1209403166893e-07,-9.8324762075081e-08,-1.1016151244803e-15,-1.8579938849896e-11,-7.7565562805772e-12,-8.8944228156542e-10,4.8891306067533e-10,5.8981068632048e-11,3.1866640481512e-12,-1.5191829357792e-06,-3.5752113937715e-07,-4.2191309308401e-12,1.3926988941263e-10,-9.6043696082702e-11,1.0490462942868e-08,2.8060458803953e-09,-1.8719295120215e-13,6.9004275690223e-07,1.0087253227439e-09,-7.6580172742101e-11,1.0369723246823e-08,1.3013420818481e-06,1.0881289351306e-09,-1.2099854183605e-09,2.7231643158837e-12,-1.1324481444924e-07,-1.1720601230192e-10,4.0107381489181e-07,4.5795937724097e-12,-2.9775478777922e-08,622.36065801503,622.36065801503,622.13242348711,622.13242348711,622.53732153545,623.84241033205,621.51945701027,622.2039870024,623.3790400839,624.49914393781,622.66925313127,622.54950031036,623.29286807318,621.73778865688,623.36741609458,621.68995508596,622.07460207885,623.16379604399,624.06839757279,621.72443452469,622.09755939915,623.73565510236,624.56157609642,623.29286807318,622.4273374485,622.45665138836,621.96129490856,623.50896508609,621.37196104036,622.38724633451,622.98300194642,624.21055410213,622.92410612843,622.55624817858,621.3131323704,621.52584652692,623.21886029521,621.35180442755,622.24447343532,621.97804003028,623.42599056958,622.20368926834,622.05150086276,621.3131323704,622.81500060324,622.81500060324,624.1202035638,624.1202035638,0.00085923705570365,0.0016968336067264,0.0014676288479212,349.9451446654,-0.0030178471305684,346.16872167202,-0.0026501295963603,0
1.59375e-05,806373283.3788,812883985.80376,805631618.68569,0.062463104089687,0.64760436919854,-0.22576307227148,20000000,9.0159470988652e-07,4.7450794651725e-06,7.6282484382855e-07,1.0000000000315,497.83812895164,497.83812895164,497.60989448375,497.60989448375,498.01479243426,499.31988124173,496.99692797855,497.6814579549,498.85651101014,499.97661488886,498.14672413922,498.02697129122,498.77033904881,497.21525956523,498.84488702644,497.16742604825,497.55207301181,498.64126694298,499.54586848165,497.20190550735,497.57503036896,499.21312602304,500.03904703289,498.77033904881,497.90480845788,497.93412238006,497.43876581278,498.98643599843,496.84943199201,497.86471727138,498.4604728777,499.6880250657,498.40157712873,498.03371914453,496.79060329463,497.0033174358,498.69633121741,496.82927537714,497.72194436408,497.45551094441,498.90346151563,497.68116023981,497.52897179864,496.79060329463,498.29247152326,498.29247152326,499.59767447611,499.59767447611,1.1369760018768e-06,1.1322933695302e-10,-4.1698620147329e-12,2.9907404094368e-08,4.9015589380027e-11,-6.8074957277616e-06,-1.2795010061142e-06,-9.0780482665102e-13,7.4055233209532e-10,-2.7222679816268e-10,1.8129885095761e-08,2.4346027268358e-10,5.5839837373755e-08,6.8908094805706e-06,1.0385407584406e-08,-2.3805338684642e-09,1.6477166995493e-09,6.9674131140144e-11,-3.141561772468e-06,-5.0445393453721e-07,-5.6693289801559e-15,-9.5693783712508e-11,-3.9862142725248e-11,-4.5642334089432e-09,2.5094792061097e-09,3.0268377558815e-10,1.635094731196e-11,-7.7945969056033e-06,-1.8336081275475e-06,-2.1663511815993e-11,7.1457794273882e-10,-4.9411600726458e-10,5.381270525979e-08,1.4391439565884e-08,-9.6378344061083e-13,3.5397748433773e-06,5.1757791742523e-09,-3.9356078798536e-10,5.3180635967503e-08,6.6751646585119e-06,5.5889173420277e-09,-6.2138180062866e-09,1.3959223919629e-11,-5.8044838921433e-07,-6.0154907631254e-10,2.0573463775333e-06,2.3497317893277e-11,-1.5287763733129e-07,622.36065791967,622.36065791967,622.13242345179,622.13242345179,622.5373214023,623.84241020977,621.51945694659,622.20398692294,623.37903997818,624.49914385689,622.66925310726,622.54950025925,623.29286801685,621.73778853327,623.36741599447,621.68995501628,622.07460197984,623.16379591101,624.06839744969,621.72443447539,622.09755933699,623.73565499108,624.56157600093,623.29286801685,622.42733742592,622.4566513481,621.96129478082,623.50896496647,621.37196096004,622.38724623941,622.98300184574,624.21055403374,622.92410609677,622.55624811256,621.31313226266,621.52584640383,623.21886018544,621.35180434518,622.24447333212,621.97803991245,623.42599048367,622.20368920784,622.05150076667,621.31313226266,622.8150004913,622.8150004913,624.12020344415,624.12020344415,0.0050984763872471,0.0018411866107181,0.0015924300329453,379.83057126682,-0.0035531111375017,375.7332970395,-0.0031197018711823,0
1.71875e-05,806373282.65573,812883983.71732,805631617.10583,0.062463104089687,0.64760436919854,-0.22576307227148,20000000,9.7533999364775e-07,5.1172416723098e-06,8.3004422945642e-07,1.0000000001472,497.8381284625,497.8381284625,497.60989430257,497.60989430257,498.01479175117,499.31988061431,496.99692765185,497.68145754722,498.85651046778,499.97661447365,498.14672401605,498.02697102905,498.77033875977,497.21525893117,498.84488651279,497.16742569085,497.55207250391,498.64126626075,499.54586785002,497.20190525448,497.57503005006,499.2131254521,500.0390465429,498.77033875977,497.90480834203,497.9341221735,497.43876515747,498.98643538464,496.84943158003,497.86471678346,498.46047236123,499.68802471478,498.40157696632,498.03371880587,496.790602742,497.00331680439,498.69633065421,496.82927495462,497.72194383463,497.45551034003,498.90346107485,497.68115992947,497.52897130571,496.790602742,498.29247094889,498.29247094889,499.5976738622,499.5976738622,5.1543339283475e-06,5.1335777170589e-10,-1.8932864898623e-11,1.3564244154819e-07,2.2230795355872e-10,-3.0869361230595e-05,-5.8010889624268e-06,-4.1213826642036e-12,3.3591535352806e-09,-1.2364276260153e-09,8.2218160290909e-08,1.1034962816705e-09,2.5304436030347e-07,3.1241260319693e-05,4.7096451384322e-08,-1.0809199197468e-08,7.4662976113224e-09,3.1600476651256e-10,-1.4248493010709e-05,-2.2875129003364e-06,-2.5788282241068e-14,-4.3519211304381e-10,-1.8105835467239e-10,-2.0702644003569e-08,1.1384071241854e-08,1.3729904714341e-09,7.4157178800304e-11,-3.5339709343517e-05,-8.3117587743645e-06,-9.831663363376e-11,3.2407976417898e-09,-2.2465272423081e-09,2.4397075346181e-07,6.5235199869665e-08,-4.3858373541239e-12,1.6049221242787e-05,2.3471932435115e-08,-1.7877188696793e-09,2.4100920713124e-07,3.0262712518948e-05,2.5371736203992e-08,-2.8205408323573e-08,6.3241563164917e-11,-2.6296143435559e-06,-2.7288373697722e-09,9.3255529119848e-06,1.065645245714e-10,-6.9364736147583e-07,622.36065743053,622.36065743053,622.13242327061,622.13242327061,622.53732071921,623.84240958234,621.51945661989,622.20398651525,623.37903943582,624.49914344169,622.66925298409,622.54949999709,623.2928677278,621.73778789921,623.36741548082,621.68995465889,622.07460147194,623.16379522879,624.06839681805,621.72443422251,622.0975590181,623.73565442014,624.56157551094,623.2928677278,622.42733731006,622.45665114154,621.96129412551,623.50896435268,621.37196054807,622.38724575149,622.98300132926,624.21055368281,622.92410593436,622.5562477739,621.31313171004,621.52584577243,623.21885962224,621.35180392266,622.24447280267,621.97803930807,623.42599004288,622.20368889751,622.05150027375,621.31313171004,622.81499991693,622.81499991693,624.12020283024,624.12020283024,0.026156457884874,0.0019855305217864,0.0017172150189916,409.73213958895,-0.0041331777583056,405.31409840754,-0.0036279515800538,0
1.84375e-05,806373279.37752,812883974.25761,805631609.94269,0.062463104089687,0.64760436919854,-0.22576307227148,20000000,1.0384228869036e-06,5.4894046639057e-06,8.9305732567294e-07,1.0000000006187,497.83812624489,497.83812624489,497.60989348115,497.60989348115,498.01478865408,499.31987776938,496.99692617071,497.68145569879,498.85650800877,499.97661259097,498.14672345764,498.02696984048,498.77033744923,497.21525605655,498.84488418385,497.16742407056,497.55207020123,498.64126316749,499.545864986,497.20190410801,497.57502860424,499.21312286344,500.03904432111,498.77033744923,497.90480781681,497.93412123703,497.43876218638,498.98643260156,496.84942971227,497.86471457122,498.46047001963,499.68802312356,498.40157622998,498.0337172705,496.79060023658,497.0033139418,498.69632810059,496.8292730391,497.72194143418,497.45550759996,498.90345907627,497.68115852252,497.52896907096,496.79060023658,498.29246834464,498.29246834464,499.59767107859,499.59767107859,2.100713840639e-05,2.0938085600809e-09,-7.6779956150266e-11,5.5321773088591e-07,9.0689845678611e-10,-0.00012597425480842,-2.3639328725155e-05,-1.6821125038739e-11,1.3706254134514e-08,-5.0625803945203e-09,3.3016029559919e-07,4.4970300221868e-09,1.0089610065405e-06,0.00012734352155385,1.9233088405081e-07,-4.2951109241898e-08,3.0351706460179e-08,1.2890695629374e-09,-5.8137820516882e-05,-9.3249894989448e-06,-1.0547358041206e-13,-1.7816621629728e-09,-7.3968267759638e-10,-8.1795147975599e-08,4.5838845947148e-08,5.5983013464812e-09,3.0252875221946e-10,-0.00014421753666123,-3.3859753033088e-05,-4.0113679841425e-10,1.3221668133246e-08,-9.3963986432428e-09,9.7743420587734e-07,2.6585666651045e-07,-1.719903554017e-11,6.5423845742297e-05,9.5710851047286e-08,-7.097198087938e-09,9.8163273302013e-07,0.0001233486727146,1.0657347054572e-07,-1.1209828729455e-07,2.5649136726156e-10,-1.0702711176599e-05,-1.1129472523776e-08,3.8038699546906e-05,4.3462832539244e-10,-2.8292182195327e-06,622.36065521293,622.36065521293,622.13242244918,622.13242244918,622.53731762212,623.84240673742,621.51945513874,622.20398466682,623.37903697681,624.499141559,622.66925242568,622.54949880852,623.29286641726,621.73778502459,623.36741315188,621.6899530386,622.07459916927,623.16379213553,624.06839395404,621.72443307605,622.09755757227,623.73565183147,624.56157328914,623.29286641726,622.42733678485,622.45665020507,621.96129115442,623.50896156959,621.3719586803,622.38724353925,622.98299898767,624.2105520916,622.92410519801,622.55624623853,621.31312920461,621.52584290984,623.21885706862,621.35180200714,622.24447040221,621.97803656799,623.42598804431,622.20368749055,622.05149803899,621.31312920461,622.81499731267,622.81499731267,624.12020004663,624.12020004663,0.11855790000378,0.0021298604198793,0.0018419838198213,439.64919593263,-0.0047540081826065,434.91117159951,-0.0041702579063227,0
1.96875e-05,806373266.01463,812883935.68852,805631580.7268,0.062463104089687,0.64760436919854,-0.22576307227148,20000000,1.1150373529411e-06,5.861566711863e-06,9.515423953491e-07,1.0000000023677,497.83811720557,497.83811720557,497.60989013291,497.60989013291,498.01477602621,499.31986616181,496.99692013398,497.68144815863,498.85649798353,499.97660491049,498.14672118327,498.02696499536,498.77033210555,497.21524433978,498.8448746834,497.16741746786,497.55206081136,498.64125055348,499.54585330147,497.20189943528,497.57502270735,499.2131123079,500.0390352574,498.77033210555,497.90480567775,497.93411741954,497.43875007396,498.98642124601,496.84942209979,497.86470554619,498.46046047435,499.68801663264,498.40157322958,498.03371101179,496.79059002501,497.00330227424,498.69631768287,496.82926523323,497.72193164357,497.45549643139,498.90345092438,497.6811527885,497.52895995987,496.79059002501,498.29245771982,498.29245771982,499.59765972477,499.59765972477,7.8019761102425e-05,7.7879826627802e-09,-2.8548634435122e-10,2.0572180182243e-06,3.3735325587502e-09,-0.00046660318493504,-8.783502064851e-05,-6.2613790687289e-11,5.1003767158626e-08,-1.8829695102908e-08,1.2262305532258e-06,1.6695336655172e-08,3.7446052823183e-06,0.00047307452960949,7.1446148915942e-07,-1.5990494519158e-07,1.1242190996947e-07,4.7951162688551e-09,-0.00021542753757289,-3.4656626090776e-05,-3.933322612571e-13,-6.539283596231e-09,-2.7519177685242e-09,-3.0436062503595e-07,1.7030058370572e-07,2.0827396666121e-08,1.125355678221e-09,-0.00053401116180374,-0.00012578561686869,-1.4925344328459e-09,4.919274040739e-08,-3.4938888107006e-08,3.6292732119311e-06,9.8714279405413e-07,-6.4154127763667e-11,0.00024307172889054,3.5556634914743e-07,-2.6431419061275e-08,3.6342246097012e-06,0.00045819259054829,3.9637646390494e-07,-4.1722867531373e-07,9.5134554224409e-10,-3.9737832086313e-05,-4.1381390497639e-08,0.00014080838357157,1.6166481008144e-09,-1.0492787403705e-05,622.36064617361,622.36064617361,622.13241910094,622.13241910094,622.53730499425,623.84239512985,621.51944910202,622.20397712666,623.37902695157,624.49913387853,622.6692501513,622.54949396339,623.29286107358,621.73777330781,623.36740365143,621.6899464359,622.0745897794,623.16377952152,624.06838226951,621.72442840331,622.09755167538,623.73564127593,624.56156422543,623.29286107358,622.42733464579,622.45664638757,621.961279042,623.50895021405,621.37195106782,622.38723451422,622.98298944238,624.21054560068,622.92410219762,622.55623997983,621.31311899305,621.52583124227,623.2188466509,621.35179420127,622.2444606116,621.97802539942,623.42597989241,622.20368175653,622.05148892791,621.31311899305,622.81498668785,622.81498668785,624.1201886928,624.1201886928,0.48212250175501,0.0022741861654259,0.0019667364233369,469.58265405803,-0.0054207828325228,464.52408468545,-0.0047541188310419,0
2.09375e-05,806373216.39149,812883792.59352,805631472.43081,0.062463104089687,0.64760436919854,-0.22576307227148,20000000,1.1825021515159e-06,6.2337285436182e-06,1.0156887861643e-06,1.0000000088245,497.8380836337,497.8380836337,497.60987771044,497.60987771044,498.01472916401,499.3198231661,496.99689772157,497.6814202169,498.85646076701,499.97657645957,498.14671273641,498.02694700964,498.77031229639,497.21520081865,498.84483948496,497.16739294462,497.55202597922,498.641203759,499.54581001096,497.20188209139,497.57500084942,499.21307314094,500.03900167455,498.77031229639,497.90479773174,497.93410325279,497.43870510968,498.98637918733,496.84939383176,497.86467210704,498.46042502706,499.68799258914,498.40156209512,498.03368777297,496.79055209825,497.0032589363,498.69627908815,496.82923623577,497.7218953453,497.45545494722,498.90342071879,497.68113150262,497.52892614298,496.79055209825,498.29241835789,498.29241835789,499.59761763165,499.59761763165,0.00032133942827213,1.2128999668099e-08,-9.6933795965786e-10,7.5052355777292e-06,1.1041396207269e-08,-0.0015835181617829,-0.0003030638092528,-2.1642706412737e-10,5.457156026703e-08,-6.4160854828237e-08,4.1722073117817e-06,6.6912651384825e-08,1.2559161541472e-05,0.0019232398339878,4.1952895767262e-06,-5.5029428414044e-07,3.7992899064669e-07,1.5770012677e-08,-0.00073241919068201,-0.00012044276154155,-1.2963462243513e-12,-8.7754076520121e-08,-9.4038655293966e-09,-1.0521597145419e-06,5.7915506549923e-07,7.8828803682721e-08,3.6680552033855e-09,-0.001809734080558,-0.00043375199468671,-5.1597675803441e-09,6.0005334636878e-08,-1.1774902957669e-07,1.2352613259439e-05,3.9792191728901e-06,-2.2464702908113e-10,0.00097393896377805,2.1426180324716e-06,-9.0933794318219e-08,1.2279250872958e-05,0.0018828709331711,2.9094351453454e-06,-1.4366484338392e-06,3.1360366096693e-09,-0.00013212040652108,-1.7916179024273e-07,0.0004762991688671,5.3774544260123e-09,-3.5834872663592e-05,622.36061260174,622.36061260174,622.13240667848,622.13240667848,622.53725813205,623.84235213414,621.51942668961,622.20394918494,623.37898973504,624.49910542761,622.66924170444,622.54947597768,623.29284126443,621.73772978669,623.36736845299,621.68992191266,622.07455494726,623.16373272703,624.068338979,621.72441105942,622.09752981746,623.73560210898,624.56153064259,623.29284126443,622.42732669977,622.45663222083,621.96123407772,623.50890815537,621.3719227998,622.38720107508,622.9829539951,624.21052155718,622.92409106316,622.55621674101,621.31308106628,621.52578790433,623.21880805618,621.35176520381,622.24442431334,621.97798391525,623.42594968682,622.20366047066,622.05145511101,621.31308106628,622.81494732592,622.81494732592,624.12014659968,624.12014659968,1.7800246157986,0.0024185405376753,0.0020914733361054,499.53529277669,-0.0060441902993936,494.14635605631,-0.0053191129855277,0
2.21875e-05,806373019.25695,812883254.74815,805631096.83064,0.062463104089687,0.64760436919854,-0.22576307227148,20000000,1.2520536496369e-06,6.6058907668706e-06,1.0762247648112e-06,1.0000000284787,497.83794840794,497.83794840794,497.60983418747,497.60983418747,498.01455275579,499.31967653469,496.9968154353,497.68132322032,498.85631561864,499.97647887832,498.14668269475,498.02687710285,498.77024291866,497.21502715197,498.8447170718,497.16729889331,497.55189437854,498.64103021153,499.54566041389,497.20182013407,497.57492485025,499.21292462311,500.03888465638,498.77024291866,497.90476950419,497.93405023926,497.43853360929,498.98623624341,496.84928750764,497.86455609991,498.46028373041,499.68791073113,498.40152271056,498.03359539658,496.7904049776,497.0030874038,498.69614502023,496.82912360282,497.72176288803,497.455288426,498.90331548893,497.68105199214,497.5287942314,496.7904049776,498.29228178421,498.29228178421,499.59746611338,499.59746611338,0.00095719246010105,3.8943912678528e-08,-3.0512682634482e-09,2.3907193664812e-05,3.526018624062e-08,-0.0048629501978186,-0.00096001302952171,-6.8959657889374e-10,1.751926415902e-07,-2.0214963816637e-07,1.3128323314089e-05,2.0421225618574e-07,3.9683538736871e-05,0.0057700424111128,1.2035365040732e-05,-1.7539478980807e-06,1.1744136576222e-06,5.0356354781835e-08,-0.0022537466744645,-0.00038192410693818,-4.1311668574787e-12,-2.6940404683012e-07,-2.9697423679215e-08,-3.3678391271878e-06,1.8226626088233e-06,2.5188592556835e-07,1.1715222459142e-08,-0.0055500751053437,-0.0013736018274627,-1.6404300598227e-08,1.9260712478765e-07,-3.6667342607075e-07,3.8865120934705e-05,1.1963777270028e-05,-7.1543216609609e-10,0.0029380618815042,6.1730582398245e-06,-2.8979255805136e-07,3.7746280222711e-05,0.0056238147408585,8.0276227925441e-06,-4.5809714725506e-06,9.8326374662046e-09,-0.00042366350825496,-5.4661666823958e-07,0.0014597220410038,1.7171476881158e-08,-0.00011076188035203,622.36047737598,622.36047737598,622.13236315551,622.13236315551,622.53708172383,623.84220550272,621.51934440334,622.20385218835,623.37884458668,624.49900784636,622.66921166279,622.54940607088,623.2927718867,621.73755612001,623.36724603984,621.68982786134,622.07442334658,623.16355917956,624.06818938193,621.7243491021,622.09745381829,623.73545359115,624.56141362441,623.2927718867,622.42729847222,622.4565792073,621.96106257733,623.50876521145,621.37181647567,622.38708506794,622.98281269845,624.21043969916,622.92405167859,622.55612436462,621.31293394564,621.52561637183,623.21867398826,621.35165257085,622.24429185607,621.97781739403,623.42584445697,622.20358096017,622.05132319943,621.31293394564,622.81481075224,622.81481075224,624.11999508142,624.11999508142,26.726546138372,0.002562854581925,0.0022161936400857,529.49683498034,-0.0067893045955376,523.78692938553,-0.0059738749907214,0
2.34375e-05,806372426.09558,812881624.60735,805629940.27116,0.062463104089687,0.64760436919854,-0.22576307227148,20096580.71416,1.3251444169376e-06,6.9780573623363e-06,1.136873026495e-06,1.0000000825141,497.83754265859,497.83754265859,497.60969913523,497.60969913523,498.01401687576,499.3192263926,496.99656213401,497.68102550574,498.85587801478,499.97617973617,498.14658888755,498.02666613183,498.77002975827,497.214503897,498.84434257431,497.16701219188,497.55149657128,498.64050258717,499.54520196649,497.20162821748,497.57469098113,499.21247519132,500.03852678229,498.77002975827,497.90468110506,497.93388883533,497.43801288179,498.9857973124,496.84896211761,497.86420061455,498.4598589848,499.68765926766,498.40140060587,498.03331783673,496.78995822329,497.00256933505,498.6957349744,496.82878097308,497.72136061883,497.45478769386,498.90299331345,497.68080890712,497.52839706182,496.78995822329,498.29186390716,498.29186390716,499.59700437833,499.59700437833,0.0025708400421062,1.178375272393e-07,-8.5147797453246e-09,7.1325667660367e-05,1.0556192945679e-07,-0.013366262486619,-0.0028148203209005,-2.0393400174227e-09,5.2926653303676e-07,-5.8354284928259e-07,3.6877301591609e-05,5.6421368680325e-07,0.00011241691716556,0.015707240941896,2.9956250373743e-05,-5.0456700593534e-06,3.3048967849386e-06,1.5070040252992e-07,-0.0062340445357225,-0.0011258691015847,-1.2063607189263e-11,-7.5355789543533e-07,-8.6043578904918e-08,-9.8082550096973e-06,5.1120149351152e-06,7.5509229215561e-07,3.5088639173831e-08,-0.015196067705199,-0.0040125652027454,-4.8358734251877e-08,5.820009452655e-07,-1.0445673272025e-06,0.00010931365954319,3.2438636108212e-05,-1.9936225249912e-09,0.0080639245677494,1.5502036926794e-05,-8.3013167194597e-07,0.00010439909322891,0.015200457210092,1.8768890525217e-05,-1.3228494856512e-05,2.8758942010459e-08,-0.0012510579775833,-1.5157043271913e-06,0.0039939118717849,5.1372414807005e-08,-0.00031127813248798,622.36007537684,622.36007537684,622.13223185349,622.13223185349,622.53654959402,623.84175911086,621.51909485226,622.203558224,623.37841073304,624.49871245443,622.6691216058,622.54919885008,623.29256247652,621.73703661526,623.36687529256,621.68954491014,622.07402928953,623.16303530542,624.06773468474,621.72416093574,622.09722369939,623.73500790958,624.56105950055,623.29256247652,622.42721382332,622.45642155359,621.96054560005,623.50833003065,621.37149483587,622.3867333328,622.98239170306,624.21019198592,622.92393332413,622.55585055498,621.31249094155,621.52510205331,623.21826769265,621.35131369133,622.24389333708,621.97732041211,623.42552603171,622.20334162538,622.05092978008,621.31249094155,622.81439662542,622.81439662542,624.11953709659,624.11953709659,66.219697884876,0.0027071115943543,0.0023408978620858,559.44967323308,-0.0075735219677116,553.4350539326,-0.0066527039905126,0
2.46875e-05,806370809.32472,812877165.84292,805626730.25828,0.062463104089687,0.64760436919854,-0.22576307227148,20348292.558985,1.3886435549889e-06,7.3502290134491e-06,1.2020819851427e-06,1.0000002159222,497.83644018373,497.83644018373,497.60931781452,497.60931781452,498.0125438545,499.31798893588,496.99585105786,497.68020424548,498.85468482178,499.97535882588,498.14632011302,498.02609012629,498.76943971718,497.21307278968,498.84331608373,497.16621586358,497.55041330092,498.63905424853,499.54394236636,497.20108598028,497.57404231463,499.21124742244,500.03754583872,498.76943971718,497.90442645555,497.93344371875,497.43657909503,498.98459103973,496.84805461873,497.86322330224,498.4587028023,499.68696758052,498.40105590084,498.03256343431,496.78872375563,497.00114774341,498.69461182188,496.82783074527,497.72026273368,497.45342211931,498.90210863425,497.68013348485,497.52731723954,496.78872375563,498.29071854748,498.29071854748,499.59573882191,499.59573882191,0.0062944491159606,3.4077049805098e-07,-2.1375449284482e-08,0.00019522494126701,2.9681978090031e-07,-0.031872889556362,-0.0073877494033667,-5.5051138010658e-09,1.5306592037892e-06,-1.4943463316462e-06,9.4158255714133e-05,1.3994096701406e-06,0.00029132523438677,0.039523042254239,6.5522113276694e-05,-1.3951599826916e-05,8.3882297834766e-06,4.2406886721292e-07,-0.014849875540176,-0.0029620090399938,-3.5453810665895e-11,-1.6884259324187e-06,-2.1843946790282e-07,-2.757485581823e-05,1.2998399836491e-05,2.1258481943538e-06,9.858198187012e-08,-0.036334372973157,-0.0106026413883,-1.2329467643191e-07,1.6813765688192e-06,-2.5511587230829e-06,0.00028007080941572,7.9396516119692e-05,-5.4307278406734e-09,0.020522229479277,3.4040760908451e-05,-2.2901094373286e-06,0.00025719276397083,0.037795019839843,3.6806627668807e-05,-3.6665977816029e-05,7.9645628440513e-08,-0.0034091968989248,-3.5343078059866e-06,0.0096360729011164,1.4484781565337e-07,-0.00074313413128036,622.35899526826,622.35899526826,622.13187289906,622.13187289906,622.53509893903,623.84054402042,621.51840614239,622.20275933002,623.37723990632,624.49791391042,622.66887519756,622.54864521083,623.29199480172,621.73562787422,623.36587116826,621.68877094811,622.07296838545,623.16160933306,624.06649745089,621.72364106482,622.09659739917,623.73380250697,624.56010092326,623.29199480172,622.42698154009,622.45599880329,621.95913417957,623.50714612426,621.37060970327,622.38577838677,622.98125788684,624.20952266506,622.92361098537,622.55511851884,621.31127884016,621.52370282794,623.21716690641,621.35038582981,622.24281781821,621.97597720385,623.42466371879,622.20268856938,622.04987232408,621.31127884016,622.81327363202,622.81327363202,624.11829390645,624.11829390645,127.71429943347,0.0028513481651088,0.0024655860239721,589.38922017218,-0.00837964473846,583.07919609691,-0.0073409413787269,0
2.59375e-05,806366766.73136,812866171.70168,805618873.68104,0.062463104089687,0.64760436919854,-0.22576307227148,20772198.926273,1.4571693904315e-06,7.7224006760526e-06,1.265036195384e-06,1.0000005066619,497.83368720117,497.83368720117,497.60835571156,497.60835571156,498.00888595372,499.31502201092,496.99404239147,497.67820945489,498.85172542566,499.97339421299,498.14562466001,498.0246590285,498.76799406009,497.20947365004,498.84084516649,497.16419082251,497.54775395594,498.6354847664,499.54091130965,497.19970657603,497.57245252538,499.20822292625,500.0351889997,498.76799406009,497.90376285935,497.93233537188,497.43299233656,498.98170280667,496.84574985124,497.8608625158,498.45582063503,499.68530980277,498.40018379393,498.03068746781,496.7855997701,496.99756412222,498.6919125604,496.82541042746,497.71759092673,497.44999632044,498.89997157238,497.67842980378,497.52464443958,496.7855997701,498.28796466574,498.28796466574,499.59266134407,499.59266134407,0.014202974855251,8.2428909716672e-07,-4.5925753828017e-08,0.00050214633585709,6.4450237241817e-07,-0.062924690680465,-0.017911575487754,-1.3890163275455e-08,4.818288948904e-06,-3.4473387688275e-06,0.0002080581605069,3.2159358864486e-06,0.00065986104251341,0.09163205723402,0.00011209166112768,-3.6176373978188e-05,1.7688713489135e-05,9.3733461766012e-07,-0.029425404235321,-0.0072702721835032,-8.519112449063e-11,-2.3567127245527e-06,-5.2157694164192e-07,-7.5850016805415e-05,2.853443199045e-05,5.6318633286344e-06,2.1196144487091e-07,-0.071535170638626,-0.025611439781236,-3.0655930338505e-07,4.8287345169649e-06,-4.8123542837358e-06,0.00062216593822325,0.00017906894030455,-1.4368262342598e-08,0.048144367688777,6.2525323907539e-05,-5.8858297188382e-06,0.00051871257242427,0.086628514391064,4.2531362749552e-05,-9.6107909933867e-05,1.8545330085114e-07,-0.0082635833278368,-8.10418294419e-06,0.018984645269125,3.3902493830778e-07,-0.0014801997810979,622.35637151071,622.35637151071,622.1310400211,622.1310400211,622.53157026326,623.83770632046,621.51672670101,622.20089376442,623.3744097352,624.49607852252,622.66830896955,622.54734333803,623.29067836963,621.73215795957,623.36352947603,621.68687513205,622.07043826547,623.15816907594,624.06359561919,621.72239088557,622.09513683492,623.73090723579,624.55787330923,623.29067836963,622.42644716889,622.45501968142,621.9556766461,623.50438711621,621.36843416078,622.38354682533,622.97850494456,624.2079941123,622.92286810347,622.55337177735,621.30828407964,621.52024843176,623.21459686994,621.348094737,622.24027523626,621.97268062998,623.42265588192,622.20111411332,622.04732874912,621.30828407964,622.81064897527,622.81064897527,624.11534565361,624.11534565361,195.1320850955,0.0029956717933353,0.002590257953469,619.31865390714,-0.0092524271838673,612.69791566205,-0.0081049239075161,0
2.71875e-05,806354694.01359,812836913.19346,805601639.61611,0.062463104089687,0.64760436919854,-0.22576307227148,26856907.717699,1.5299528061005e-06,8.0945841650159e-06,1.3328484531341e-06,1.0000010838767,497.82504189948,497.82504189948,497.60609237503,497.60609237503,497.99894860756,499.30904013411,496.98931010278,497.67387703822,498.84305520219,499.96937303689,498.14388416482,498.0205119815,498.76474765923,497.1982924193,498.83554062568,497.15840644843,497.5405440903,498.62617763861,499.53452192284,497.19629789707,497.5689344188,499.19993134933,500.03011042768,498.76474765923,497.90208970108,497.92935978483,497.42290890682,498.97595211332,496.83941704807,497.8557913508,498.44696142215,499.68198153749,498.39808749878,498.02499131802,496.77645411317,496.98661399699,498.68614945835,496.81830425086,497.71097658848,497.43924218739,498.89533780416,497.67384805473,497.51682439766,496.77645411317,498.28209576722,498.28209576722,499.58531131594,499.58531131594,0.028801966421986,2.4195144703219e-06,-8.030861626287e-08,0.0012645248493358,1.6694046438969e-06,-0.10876700863905,-0.03946501061332,-3.0930860656803e-08,1.4636913890847e-05,-7.178221179618e-06,0.00037567865326894,6.1887596185597e-06,0.0012023093876329,0.19667793117747,0.000190433887924,-8.4005675305149e-05,3.4013144840189e-05,2.3949829557992e-06,-0.050823352311444,-0.016563456957832,-1.6553490813314e-10,-8.7992340011618e-07,-1.1375884122163e-06,-0.00018694385380832,5.1208242018393e-05,1.4848907353819e-05,5.5915018372396e-07,-0.12379673147848,-0.055636715848043,-6.6924934342689e-07,1.4483513623441e-05,-7.2733524367202e-06,0.0011280211832947,0.00034594935771385,-3.0244025819818e-08,0.10358541265535,0.00011050437479632,-1.3512192620558e-05,0.00093723516742386,0.18407070429797,6.187021434893e-05,-0.0002260473324767,4.1514268505868e-07,-0.017774255650387,-1.6648659924518e-05,0.033088984699722,8.5743596278063e-07,-0.002552181928621,622.34832461599,622.34832461599,622.12937509153,622.12937509153,622.52223132407,623.83232285061,621.51259281929,622.19715975472,623.3663379187,624.49265575339,622.66716688132,622.543794698,623.28803037574,621.7215751358,623.35882334218,621.68168916493,622.06382680681,623.14946035511,624.05780463935,621.71958061358,622.09221713531,623.72321406583,624.55339314419,623.28803037574,622.42537241758,622.45264250134,621.94619162332,623.49923482982,621.36269976458,622.3790740673,622.97024413865,624.20526425399,622.92137021528,622.54827403452,621.29973682968,621.5098967135,623.20943217486,621.34158696736,622.23425930499,621.9625249039,623.41862052066,622.19713077123,622.04010711417,621.29973682968,622.80537848373,622.80537848373,624.10859403245,624.10859403245,253.66923551271,0.0031400602381604,0.0027149138083598,649.18071604193,-0.010217231068027,642.25683308718,-0.0089621841382019,0
2.84375e-05,806327474.27303,812768106.27222,805558634.51145,0.062463104089687,0.64760436919854,-0.22576307227148,91459722.344478,1.5994523688108e-06,8.4667708426431e-06,1.4042566560929e-06,1.0000022090655,497.80309515015,497.80309515015,497.60069682706,497.60069682706,497.97472398808,499.29282507452,496.9784608942,497.66257693175,498.82172945829,499.95871447928,498.14003088603,498.01071114097,498.75664211427,497.16821048742,498.82149969763,497.14512910444,497.52256688218,498.60342036598,499.51768482504,497.18840382532,497.55995781757,499.17973583945,500.01695177755,498.75664211427,497.89840294268,497.92232186574,497.39840801593,498.96016602596,496.82486150367,497.8423791876,498.42475893187,499.67311009687,498.3932448297,498.0113394715,496.7546617286,496.95847438517,498.67077313149,496.80186739779,497.69419561685,497.41005662398,498.88324156098,497.66322446228,497.49734062416,496.7546617286,498.2663988847,498.2663988847,499.56700532085,499.56700532085,0.053132831230039,7.1082040724186e-06,-1.1095615728217e-07,0.0028058880237859,3.9333223872478e-06,-0.18290725836788,-0.076084844268945,-6.1434134592264e-08,4.166674985793e-05,-1.4812233129411e-05,0.00055855315555816,1.0989560826921e-05,0.0018050419966985,0.4261521064657,0.00032394615886096,-0.00017190912332004,6.2834061978847e-05,5.621521773204e-06,-0.082960702066664,-0.033262664787213,-2.3759460091177e-10,7.6038708509487e-06,-2.5253098705775e-06,-0.00040530181287442,7.5121957362551e-05,3.4475359093895e-05,1.3305753909988e-06,-0.21295957398562,-0.10517956308079,-1.2816018741599e-06,4.1656211440552e-05,-1.1011309598335e-05,0.0016917945734101,0.00062397769063448,-5.1438251021223e-08,0.20528280844633,0.00019025725245715,-2.7133329349196e-05,0.0016349703056222,0.40144302341792,0.00012896467782498,-0.00047080675610534,9.1242443365106e-07,-0.03240142793167,-3.043982886501e-05,0.057350543536018,2.0374194514172e-06,-0.0040071535682768,622.32909914583,622.32909914583,622.12670082274,622.12670082274,622.50072798375,623.81882907019,621.50446488987,622.18858092743,623.34773345396,624.48471847496,622.6660348817,622.53671513665,623.28264610995,621.6942144831,623.3475036933,621.67113310012,622.04857087785,623.12942436165,624.04368882072,621.714407821,622.08596181325,623.70573983512,624.54295577322,623.28264610995,622.42440693836,622.44832586141,621.9244120116,623.48617002163,621.35086549934,622.36838318327,622.95076292755,624.19911409255,622.91924882538,622.53734346718,621.28066572428,621.48447838085,623.19677712717,621.32787139346,622.22019961252,621.93606061966,623.40924555665,622.18922845795,622.02334461983,621.28066572428,622.79240288037,622.79240288037,624.09300931653,624.09300931653,629.03187559355,0.0032845859304742,0.0028395535905823,678.9398287496,-0.011272419492811,671.69841122618,-0.0098995305244922,0
2.96875e-05,806274871.69787,812568905.84886,805370295.33421,0.062463104089687,0.64760436919854,-0.22576307227148,210089931.42111,1.66936787769e-06,8.8389860982065e-06,1.480866011473e-06,1.0000044935314,497.76886150133,497.76886150133,497.58299960098,497.58299960098,497.91035175374,499.18609091184,496.95218024454,497.60622116522,498.77681614127,499.89527218907,498.13121343937,497.98952301815,498.72100485573,497.12237075635,498.74398213993,497.12039620966,497.46999795824,498.53130640061,499.4176631968,497.16629146492,497.51954060742,499.12446785114,499.94492014078,498.72100485573,497.89075490229,497.90389618951,497.34330861547,498.85363080928,496.79387398084,497.77048632852,498.38694662771,499.62009082486,498.37830754599,497.98604467505,496.7159234085,496.91471719587,498.58276089003,496.774581043,497.62876097025,497.36590444621,498.82021985236,497.63755451786,497.45474302499,496.7159234085,498.17610321107,498.17610321107,499.48862265586,499.48862265586,0.097801521028143,1.9079471919121e-05,-1.225946097631e-07,0.0054609264538914,8.7253461357263e-06,-0.4797586461004,-0.13134952408795,-1.0531190326542e-07,0.0001092358319496,-5.5218075048225e-05,0.00071983000978471,1.8036109562746e-05,0.0023613783611418,0.75836020111534,0.00048358303648935,-0.0003056838427472,0.00011268300112912,1.241070650724e-05,-0.16821523570833,-0.059568718455838,-3.0742072413425e-11,3.5666673306809e-05,-1.5114297105016e-05,-0.0007372799204173,9.4686576097295e-05,7.0275410652081e-05,2.9967510254907e-06,-0.65346632121497,-0.17815680323588,-2.0934135000993e-06,0.00011006434948599,-6.1423551795149e-05,0.0022104388847799,0.0010667844717374,-6.5268984087085e-08,0.40363626049962,0.00028680282069225,-4.6894828176029e-05,0.002609577213353,0.69704394557006,0.00022338896365108,-0.00085635336301034,2.0272672955695e-06,-0.051217433520772,-4.7406720173033e-05,0.10420498588967,4.4572649361343e-06,-0.0064472306931027,622.30568578516,622.30568578516,622.11982388481,622.11982388481,622.44717603757,623.72291519567,621.48900452837,622.14304544905,623.3136404251,624.4320964729,622.66803772321,622.52634730198,623.25782913957,621.65919504018,623.28080642376,621.65722049349,622.00682224208,623.06813068444,623.95448748064,621.70311574875,622.05636489125,623.66129213498,624.48174442461,623.25782913957,622.42757918612,622.44072047334,621.8801328993,623.39045509311,621.33069826468,622.30731061235,622.92377091154,624.15691510869,622.91513182982,622.52286895888,621.25274769234,621.4515414797,623.11958517386,621.31140532684,622.16558525409,621.90272873004,623.35704413619,622.17437880169,621.99156730882,621.25274769234,622.7129274949,622.7129274949,624.0254469397,624.0254469397,2322.9902525578,0.0034293767005338,0.0029641775337778,708.42592139439,-0.012443894484523,700.86647319671,-0.010982594921257,0
3.09375e-05,806149942.66495,812166368.4507,805048709.58458,0.062463104089687,0.64760436919854,-0.22576307227148,217860698.36288,1.7420307437052e-06,9.211238459466e-06,1.5658012173195e-06,1.0000092879962,497.67823032673,497.67823032673,497.54856984515,497.54856984515,497.77144293642,498.9205436721,496.89438300409,497.50482135141,498.67128117604,499.77593518844,498.10914730207,497.94113412593,498.65460498372,497.00344472183,498.59491037967,497.05816255361,497.36347405904,498.38093150406,499.19360529794,497.12046553652,497.44767548777,499.00545731418,499.80419894548,498.65460498372,497.87106033025,497.86508482486,497.21820554885,498.58354777074,496.72179194841,497.63638228833,498.28989650532,499.52358884011,498.34624517308,497.92401425169,496.61815709467,496.79873384653,498.40673803401,496.70231488332,497.5033099788,497.25185358223,498.70291742966,497.57988582009,497.35911389266,496.61815709467,497.99408745603,497.99408745603,499.32948337189,499.32948337189,0.18045117008011,4.8203922464873e-05,1.9774730695802e-08,0.009402695498981,1.8482591201228e-05,-1.3568495333289,-0.21068424990654,-1.5865934176229e-07,0.00026886223078288,-0.00023636494003664,0.0021829473839215,2.6586004078858e-05,0.009694078289442,1.5254331308423,0.00063662485404303,-0.0013712232100341,0.00021842505513252,2.602544527374e-05,-0.19389817225678,-0.097477200004212,1.1679326008446e-09,9.9685817050061e-05,-9.6023100799243e-05,-0.0074090787379164,0.00014174111619419,0.00012617390987917,6.5181232664242e-06,-1.7194176651593,-0.282040710513,-2.9752523569142e-06,0.00027341146158646,7.6276361300381e-05,0.010119814948666,0.0017474024424088,8.1829114882675e-08,0.77349352021482,0.00037352994369971,-0.00010283192635356,0.0043870099259516,1.3563935784748,0.00020517072916296,-0.0064547551292369,4.8939574735956e-06,-0.072747162241412,-6.374425823799e-05,0.14133393959039,-6.5108168284446e-07,-0.0078361637688719,622.2591901786,622.2591901786,622.12952969702,622.12952969702,622.35240278829,623.50150352397,621.47534285596,622.08578120329,623.25224102791,624.35689504031,622.69010715394,622.52209397781,623.23556483559,621.5844045737,623.17587023154,621.63912240548,621.94443391091,622.96189135593,623.77456514981,621.70142538839,622.02863533965,623.58641716605,624.38515879735,623.23556483559,622.45202018212,622.44604467673,621.79916540072,623.16450762261,621.30275180028,622.2173421402,622.87085635719,624.10454869198,622.92720502495,622.50497410356,621.19911694654,621.3796936984,622.98769788588,621.28327473519,622.08426983068,621.8328134341,623.28387728153,622.16084567197,621.94007374453,621.19911694654,622.5750473079,622.5750473079,623.91044322376,623.91044322376,1665.3172437815,0.0035747783972315,0.0030887857015641,737.32517468843,-0.01384575934357,729.42355771751,-0.012386470370825,0
3.125e-05,806114530.70347,812078969.03931,805005073.76572,0.062463104089687,0.64760436919854,-0.22576307227148,218644016.81041,1.761244580664e-06,9.3043024753046e-06,1.5851420045598e-06,1.0000104665495,497.65192527085,497.65192527085,497.54117636762,497.54117636762,497.74274424966,498.89471960593,496.87910409771,497.49246445794,498.64602180293,499.76346256403,498.10117387627,497.9290168882,498.64257882558,496.96663923407,498.57722997863,497.0382003152,497.3425901697,498.35455404391,499.17163034081,497.10921153764,497.43769401591,498.98196905968,499.78912638073,498.64257882558,497.86392249082,497.85619114968,497.18829689446,498.55681953083,496.7017590067,497.62114943267,498.26332890997,499.51254976034,498.33696796459,497.9073470536,496.58962797075,496.76365083685,498.38681147626,496.67882007505,497.48393493891,497.21680062802,498.68753318147,497.5633326042,497.33611432267,496.58962797075,497.9738820203,497.9738820203,499.30861109918,499.30861109918,0.2092983245702,6.0595686840803e-05,8.517807851228e-08,0.011033392660396,2.2948180173805e-05,-0.86254396173118,-0.24521052903288,-1.7371614252147e-07,0.00033520002350347,-0.00011888508186991,0.0039656355500058,2.9717997056837e-05,0.035090468378675,1.8122166763146,0.00072207646818032,-0.0023889700897732,0.00026632395278657,3.1895999042832e-05,-0.20157188611255,-0.11364838690554,1.7832196949865e-09,0.00012575216306721,-6.8881006218523e-05,-0.041025039722468,6.7774612154423e-05,0.00014734333231995,8.2194277227784e-06,-1.2878017830105,-0.32849536774626,-3.208119388426e-06,0.00034191121535227,0.00027826086779129,0.047556138116848,0.0019828735032219,1.9196915387824e-07,0.91463792132075,0.00040957938194055,-5.6634327384192e-05,0.0052344998010757,1.5976487870487,0.00042258985037195,-0.029359710085658,6.1429696918616e-06,-0.083446566241078,-6.8344509138516e-05,0.14895927525754,-6.1131383563522e-07,-0.0091750984511592,622.24047130255,622.24047130255,622.12972239932,622.12972239932,622.33129028136,623.48326563763,621.4676501294,622.08101048964,623.23456783462,624.35200859573,622.68971990797,622.5175629199,623.23112485728,621.55518526577,623.16577601033,621.6267463469,621.9311362014,622.94310007561,623.7601763725,621.69775756934,622.02624004761,623.57051509138,624.37767241243,623.23112485728,622.45246852252,622.44473718138,621.77684292616,623.14536556253,621.2903050384,622.20969546437,622.85187494167,624.10109579203,622.92551399628,622.4958930853,621.17817400245,621.35219686854,622.97535750795,621.26736610675,622.07248097061,621.80534665972,623.27607921317,622.1518786359,621.92466035437,621.17817400245,622.562428052,622.562428052,623.89715713088,623.89715713088,2941.9042362557,0.0036111241740099,0.003119935204827,744.55269094197,-0.014201660129892,736.56968856741,-0.012722661448671,0
3.140625e-05,806095249.28986,812032289.91198,804984527.06378,0.062463104089687,0.64760436919854,-0.22576307227148,218983787.46543,1.770636122496e-06,9.3508370145758e-06,1.5942059118903e-06,1.0000110489256,497.63856172628,497.63856172628,497.53699731146,497.53699731146,497.72824478928,498.88814366412,496.87026028407,497.4875051668,498.63308533998,499.75788637131,498.09438615192,497.9226474657,498.63348367056,496.9486284676,498.56994483626,497.02560406735,497.33258923221,498.34165717283,499.1644143887,497.10263788078,497.43322307064,498.97013359698,499.78274879831,498.63348367056,497.85871219853,497.8514535055,497.17279493751,498.55058719044,496.69037816208,497.61560705809,498.24973476819,499.50675874448,498.32672855026,497.8986585152,496.5741147761,496.74576233914,498.37973050611,496.66505366062,497.47544119939,497.19973686471,498.67995565519,497.55153427035,497.32462594233,496.5741147761,497.96736946045,497.96736946045,499.29923860412,499.29923860412,0.22492425963645,6.8261470288497e-05,1.0012465054177e-07,0.011833697044681,2.5360863448602e-05,-0.77716195412581,-0.26033140546772,-1.8128930984801e-07,0.00037604989506541,-0.00010626389906363,-5.9636721462044e-07,3.1393396034719e-05,0.00088703365602571,1.8940945093521,0.00076299393011868,-4.643401088007e-05,0.00029429010693012,3.5099708552918e-05,-0.21900037917367,-0.12076827787987,2.1670495805296e-09,0.00013468566330223,-6.2052722333799e-05,-0.20541668408442,-9.4821559652482e-07,0.00015810663950609,9.1383857918456e-06,-0.98391481024898,-0.34955175815132,-3.3237738781193e-06,0.00038423745382197,-7.0645293414172e-05,0.4258254664804,0.0021091085391202,2.2387690673861e-07,0.99107330151385,0.00042704491044587,3.2141090554966e-06,0.0057049250191724,1.6793022834932,0.00076588483975337,-0.035266779117329,7.1277668257992e-06,-0.087893273113357,-7.0553918668483e-05,0.15926270030056,-4.622942577057e-07,-0.010591518319125,622.22933953584,622.22933953584,622.12777512102,622.12777512102,622.31902259884,623.47892147368,621.46103809363,622.07828297636,623.22386314954,624.34866418087,622.68516396148,622.51342527526,623.22426148012,621.53940627716,623.16072264582,621.61638187691,621.92336704177,622.93243498239,623.75519219826,621.69341569035,622.0240008802,623.56091140654,624.37352660787,623.22426148012,622.44949000809,622.44223131506,621.76357274707,623.141365,621.28115597164,622.20638486765,622.84051257775,624.09753655404,622.91750635982,622.48943632476,621.16489258566,621.3365401487,622.97050831568,621.25583147018,622.06621900895,621.79051467427,623.27073346475,622.14231207991,621.91540375189,621.16489258566,622.55814727001,622.55814727001,623.89001641368,623.89001641368,5404.7014819799,0.0036292785473339,0.0031355096103131,748.15084869727,-0.014368903236649,740.14375042816,-0.012857076477495,0
3.14453125e-05,806090098.17076,812021181.67386,804979212.79872,0.062463104089687,0.64760436919854,-0.22576307227148,219062610.99356,1.7730256505539e-06,9.3624698455374e-06,1.5964686007932e-06,1.0000111968148,497.63497207942,497.63497207942,497.53615390492,497.53615390492,497.72436971245,498.88656302065,496.86827586918,497.48621406383,498.62963414858,499.75686444207,498.09364753982,497.92101553496,498.63240929524,496.94386760868,498.56844569503,497.02309428546,497.329934437,498.33820648548,499.16262458349,497.10125483057,497.43210872243,498.96699946681,499.78133046923,498.63240929524,497.85799444902,497.85032416435,497.16869449151,498.54910651435,496.6876778994,497.61415409103,498.24609245294,499.50592760017,498.32593285559,497.89635668489,496.57018639408,496.74108053845,498.37812639011,496.66193095169,497.47321741132,497.19519035457,498.67860314614,497.54963292993,497.32155276613,496.57018639408,497.96573731976,497.96573731976,499.2968146607,499.2968146607,0.23026099407963,7.0368510632246e-05,1.0348007359706e-07,0.012123496824323,2.6136251085844e-05,-0.76791003800056,-0.26679791065159,-1.8313319860771e-07,0.00038737962182561,-0.00010180722345023,-1.399318242935e-06,3.1915513269161e-05,0.00027266050130686,1.9355379931714,0.00077219350134422,-3.5791608097512e-06,0.00030159021197446,3.6071432054251e-05,-0.22363447772341,-0.12376040734066,2.2717639487437e-09,0.00013918643553769,-6.0457541074183e-05,-0.09978347714469,-9.8423228753097e-07,0.00016152506714845,9.4459832815839e-06,-0.96490426880524,-0.35827841815116,-3.3514303789036e-06,0.00039594067821418,-7.4121476071499e-05,0.11087961241564,0.0021501359085837,2.321730442041e-07,1.0157387116865,0.0004317397456115,3.3753833985402e-06,0.0058432684037204,1.7179796083271,0.00077561193154476,-0.015898565421876,7.3246789836163e-06,-0.089952581543629,-7.1113112273358e-05,0.1630393533247,-3.7812847403016e-07,-0.010809636055049,622.22603333163,622.22603333163,622.12721515712,622.12721515712,622.31543096466,623.47762427285,621.45933712138,622.07727531604,623.22069540078,624.34792569428,622.68470879203,622.51207678717,623.22347054745,621.53492886088,623.15950694724,621.61415553767,621.9209956892,622.92926773768,623.75368583569,621.69231608278,622.02316997464,623.55806071901,624.37239172144,623.22347054745,622.44905570122,622.44138541656,621.75975574371,623.14016776655,621.27873915161,622.20521534323,622.83715370514,624.09698885237,622.91699410779,622.48741793709,621.16124764629,621.33214179065,622.96918764232,621.25299220389,622.06427866352,621.78625160677,623.26966439835,622.14069418213,621.91261401833,621.16124764629,622.55679857196,622.55679857196,623.8878759129,623.8878759129,22163.223704832,0.0036338217667259,0.0031394031589704,749.0533450071,-0.014413332838692,741.03685824293,-0.012897940133744,0
3.15234375e-05,806079538.63874,811998435.67817,804968328.5922,0.062463104089687,0.64760436919854,-0.22576307227148,219217686.84958,1.7778123208894e-06,9.3857350408589e-06,1.60095959937e-06,1.0000114960716,497.62761363623,497.62761363623,497.534427205,497.534427205,497.71642785468,498.88334207708,496.8642117397,497.48356993464,498.62256039403,499.75478024071,498.09215008999,497.91767049502,498.6302438523,496.934111732,498.56538488321,497.01796307447,497.32449428997,498.33113540289,499.15896746511,497.09842314389,497.42982607133,498.9605767343,499.77843135484,498.6302438523,497.85653029983,497.84801000743,497.16029042904,498.54609126159,496.68214619335,497.61117981075,498.23862632413,499.50423832768,498.32430251045,497.8916379681,496.56213625573,496.73148589233,498.37484928715,496.65553706348,497.46866251387,497.18587302838,498.67584557724,497.54576351637,497.31525379727,496.56213625573,497.96240022233,497.96240022233,499.29185093243,499.29185093243,0.23707843418679,7.4617141802606e-05,1.1023633160135e-07,0.012455330165477,2.7300620673316e-05,-0.73785929891191,-0.27179321024481,-1.8701637411626e-07,0.0004100281594424,-9.9018576961675e-05,-1.6977615562968e-06,3.2714344402733e-05,4.554907735368e-05,1.9844523463059,0.00078909432426871,1.3904851650745e-05,0.00031404366564909,3.7678432468886e-05,-0.22783822160826,-0.12645276471499,2.4897835577668e-09,0.00014865750068498,-6.0015346177218e-05,-0.045838246194636,-1.0551074146838e-06,0.0001663740225648,9.8799985104965e-06,-0.91311138926739,-0.36456488879939,-3.4095987849735e-06,0.00041935695107387,-7.506593667959e-05,0.040936656099677,0.0022079151473881,2.4415239412749e-07,1.0529353103781,0.00044024149124405,3.5789720428758e-06,0.0060626676531564,1.7615884820946,0.00079380017975433,-0.0069852846494517,7.697582682265e-06,-0.090622903156348,-7.2185735355399e-05,0.16801590951461,-4.4252134978315e-07,-0.01104116000048,622.21918832597,622.21918832597,622.12600189474,622.12600189474,622.30800254442,623.47491676682,621.45578642944,622.07514462438,623.21413508376,624.34635493045,622.68372477973,622.50924518475,623.22181854204,621.52568642174,623.15695957295,621.6095377642,621.91606897971,622.92271009262,623.75054215484,621.68999783363,622.02140076106,623.55215142403,624.37000604458,623.22181854204,622.44810498956,622.43958469717,621.75186511877,623.13766595132,621.27372088309,622.20275450049,622.83020101387,624.09581301741,622.91587720018,622.48321265784,621.15371094547,621.32306058207,622.96642397689,621.24711175322,622.06023720361,621.77744771812,623.26742026698,622.13733820611,621.90682848701,621.15371094547,622.55397491207,622.55397491207,623.88342562216,623.88342562216,7541.1571919936,0.0036429083427441,0.0031471902037848,750.85839342722,-0.014500830237376,742.82226757036,-0.012978601241272,0
3.16796875e-05,806057692.15984,811951507.80339,804946047.69043,0.062463104089687,0.64760436919854,-0.22576307227148,219517860.30682,1.7874128923257e-06,9.4322651937268e-06,1.6099027528926e-06,1.000012120011,497.61240602197,497.61240602197,497.53089691576,497.53089691576,497.70005007919,498.87679853743,496.85585913712,497.4781526403,498.60795006623,499.75052074215,498.08910482167,497.91076780079,498.62584017245,496.91397389472,498.55911320337,497.00739763388,497.3132669106,498.31655997668,499.15149043941,497.09261821163,497.42515146183,498.94732151316,499.77248701232,498.62584017245,497.85354423235,497.84324813009,497.14295510422,498.53997632804,496.67075611122,497.60508578097,498.22319938817,499.50079688562,498.32096147641,497.88188831221,496.5455290653,496.71167993401,498.36813676739,496.64235490815,497.45927869851,497.16663445674,498.67019762097,497.53782406165,497.30224177078,496.5455290653,497.95556721939,497.95556721939,499.28163641935,499.28163641935,0.25188843861355,8.3787636727464e-05,1.244704479163e-07,0.013105096221899,2.9761233962666e-05,-0.71967441852698,-0.28188033991887,-1.9481794742542e-07,0.00045872392003797,-9.8855736968798e-05,-1.9965250764506e-06,3.4433237649654e-05,-4.6355513554086e-05,2.1088810336748,0.00082324523417679,2.3138367034796e-05,0.00033929488529706,4.1082944654791e-05,-0.23787939480512,-0.13180375878576,2.9747033497795e-09,0.00016917819260199,-6.1527805469503e-05,-0.023338613282167,-1.2018704830741e-06,0.00017590248757364,1.0798538072675e-05,-0.88348847321049,-0.3774032997521,-3.5262203917838e-06,0.00046977197786173,-7.6746811354896e-05,0.019282236446948,0.0023333230311644,2.6984378587498e-07,1.1324106813728,0.00045745349518777,3.9853505131638e-06,0.0065119651972118,1.8691754010019,0.00083046903132474,-0.0033904978909279,8.4717087283396e-06,-0.091900232733497,-7.4341479013044e-05,0.1788438958394,-6.334574605003e-07,-0.011522455982678,622.20495331615,622.20495331615,622.12344420994,622.12344420994,622.29259737337,623.46934583161,621.44840643131,622.07069993448,623.20049736042,624.34306803633,622.68165211586,622.50331509497,623.21838746663,621.5065211889,623.15166049755,621.59994492806,621.90581420478,622.90910727086,623.74403773359,621.68516550581,622.01769875601,623.53986880734,624.3650343065,623.21838746663,622.44609152653,622.43579542427,621.7355023984,623.13252362222,621.2633034054,622.19763307516,622.81574668235,624.0933441798,622.91350877059,622.47443560639,621.13807635948,621.3042272282,622.96068406158,621.23490220234,622.05182599269,621.75918175092,623.26274491515,622.13037135583,621.89478906496,621.13807635948,622.54811451358,622.54811451358,623.87418371353,623.87418371353,3126.0884858492,0.0036610865832791,0.0031627640977743,754.46248491198,-0.014675103358222,746.38686266887,-0.013138880410803,0
3.19921875e-05,806010885.43924,811851379.397,804899255.95699,0.062463104089687,0.64760436919854,-0.22576307227148,220087264.43577,1.8067372646914e-06,9.5253261114428e-06,1.6278228639945e-06,1.0000135093353,497.57985944913,497.57985944913,497.52350563301,497.52350563301,497.66515598848,498.86312191898,496.83819145016,497.46674242226,498.57672030653,499.7415496273,498.08274279263,497.89604538572,498.61657779636,496.87095324764,498.54585111161,496.98492575877,497.2892964592,498.28552411362,499.13574383909,497.08040073836,497.41532385622,498.91902786834,499.75991507926,498.61657779636,497.84730734474,497.83314887987,497.10600898835,498.52721810763,496.64657403048,497.5922339867,498.19019781286,499.49357461013,498.31394106475,497.86104022155,496.51013148075,496.66938632766,498.35395022823,496.6142804065,497.43929863143,497.12550832876,498.65825828428,497.52098549283,497.27441833965,496.51013148075,497.94114333276,497.94114333276,499.25993258442,499.25993258442,0.28546691128127,0.00010489594415806,1.5732328010921e-07,0.014345315355565,3.524908291482e-05,-0.74276796301167,-0.3022293457003,-2.1050245021878e-07,0.00056970642566556,-0.00010621478907994,-2.5687920741895e-06,3.8261604088e-05,-9.8971956749379e-05,2.4092801927141,0.00089306007821458,3.2654880382291e-05,0.00039266555138132,4.8719529780042e-05,-0.26216931283605,-0.1423036179106,4.1636570157018e-09,0.00021629183806457,-6.8333816056715e-05,-0.013002559023615,-1.5368711202714e-06,0.00019419322421472,1.2851757158762e-05,-0.9113197602813,-0.40383430713609,-3.7589659863604e-06,0.00058507427720285,-8.4226853192435e-05,0.011111783595866,0.002617048401503,3.2856343605003e-07,1.3095424714384,0.00049266753815671,4.9353242616639e-06,0.0074672782991172,2.1264376843893,0.00090543223880503,-0.0017827852406672,1.0185487116596e-05,-0.09410088981217,-7.8670974800259e-05,0.20324887535442,-1.1614515092412e-06,-0.012573759051864,622.17433678598,622.17433678598,622.11798296986,622.11798296986,622.25963332533,623.45759925583,621.43266878701,622.06121975912,623.17119764338,624.33602696415,622.67722012948,622.49052272257,623.21105513321,621.46543058449,623.14032844846,621.57940309562,621.88377379605,622.88000145047,623.73022117594,621.67487807521,622.00980119307,623.51350520519,624.35439241611,623.21105513321,622.44178468159,622.42762621672,621.7004863252,623.12169544448,621.24105136733,622.18671132355,622.78467514971,624.08805194698,622.9084184016,622.4555175584,621.1046088176,621.26386366452,622.94842756508,621.20875774335,622.03377596828,621.71998566561,623.25273562114,622.11546282968,621.8688956765,621.1046088176,622.53562066961,622.53562066961,623.85440992127,623.85440992127,1539.0323518951,0.0036974746092755,0.0031939111216031,761.63533833064,-0.01502644077951,753.48119699096,-0.013461055669129,0
3.26171875e-05,805902934.22771,811617998.26492,804788328.03606,0.062463104089687,0.64760436919854,-0.22576307227148,221151516.74552,1.8454242932768e-06,9.711452211564e-06,1.6670956383605e-06,1.0000170400855,497.50501156525,497.50501156525,497.50652734461,497.50652734461,497.58390332147,498.82891140342,496.79759088481,497.43929978741,498.50434937447,499.71912068444,498.06834151139,497.86216876681,498.59458014371,496.77211282961,498.51338140177,496.93340571375,497.23339453375,498.21271429081,499.09685932283,497.05233420373,497.39202760363,498.85294067148,499.72899843301,498.59458014371,497.83326193383,497.80991788147,497.02047659751,498.49516896324,496.59099120938,497.56099109934,498.1140990889,499.47550631367,498.29776811298,497.81307048094,496.4287620548,496.5721890222,498.31909270264,496.54996007845,497.39204943927,497.03100843346,498.62923596971,497.48220592633,497.21007517866,496.4287620548,497.90573046818,497.90573046818,499.20805646015,499.20805646015,0.36733425789544,0.0001592033298878,2.4732252563143e-07,0.016548131675388,4.8831659476257e-05,-0.88802807647427,-0.3433046927068,-2.4182718694774e-07,0.00084882530565548,-0.00013319300707011,-4.0732318833302e-06,4.7266514662124e-05,-0.00014618718386689,3.1576195720536,0.0010384230361694,5.2405293152726e-05,0.00051409219075393,6.7890060235424e-05,-0.33100901823851,-0.1622354446846,7.6333980486536e-09,0.00033563759878403,-8.9806260411214e-05,-0.008215223022766,-2.4535331140038e-06,0.0002268277755476,1.7943298093626e-05,-1.0885478962806,-0.4596662504783,-4.2176356952417e-06,0.00087739902611392,-0.00010846046866322,0.0079539590906262,0.003304115466614,4.8026466450374e-07,1.7375270441946,0.00056594997508529,7.5390464919954e-06,0.0096353152618947,2.7661603577445,0.0010622632380681,-0.001017890391762,1.4508083561605e-05,-0.097051717749035,-8.7396919313756e-05,0.26344185413039,-3.2694267707142e-06,-0.015211659689611,622.10395783756,622.10395783756,622.10547361692,622.10547361692,622.18284959377,623.42785767573,621.39653715711,622.03824605971,623.10329564677,624.31806695674,622.6672877837,622.46111503911,623.19352641601,621.37105910192,623.11232767408,621.53235198605,621.83234080605,622.81166056311,623.69580559514,621.65128047603,621.99097387593,623.45188694379,624.32794470531,623.19352641601,622.43220820613,622.40886415377,621.61942286981,623.09411523554,621.18993748168,622.15993737165,622.7130453612,624.07445258598,622.89671438529,622.41201675324,621.02770832711,621.17113529451,622.91803897495,621.14890635076,621.99099571158,621.62995470577,623.22818224202,622.08115219863,621.80902145097,621.02770832711,622.50467674049,622.50467674049,623.80700273246,623.80700273246,871.80852224308,0.0037704232034928,0.0032562021349118,775.79349403184,-0.01574322896615,767.48395654412,-0.014119204111954,0
3.32421875e-05,805761092.95989,811310943.16887,804646117.3978,0.062463104089687,0.64760436919854,-0.22576307227148,222150515.0091,1.8849630783949e-06,9.8975845682296e-06,1.7072778271394e-06,1.0000216242726,497.40686223021,497.40686223021,497.48582828564,497.48582828564,497.47730532046,498.77966906344,496.74650529156,497.40315568379,498.40894936881,499.68764770945,498.05104079967,497.81820484495,498.56582812827,496.64315218535,498.46870850997,496.86746431354,497.15958736668,498.11627091036,499.04185515427,497.01759245023,497.36212608932,498.76529836016,499.68590716078,498.56582812827,497.81661505965,497.78029920204,496.90906596823,498.4491156072,496.52019310469,497.51894165292,498.01411398117,499.45048589567,498.27773471661,497.75033329977,496.32370700671,496.44573018728,498.27076408466,496.46743860595,497.32907392492,496.90741835753,498.58984471693,497.43256900815,497.125512869,496.32370700671,497.85683102906,497.85683102906,499.13768068234,499.13768068234,0.47587959252365,0.00023439452924539,3.8410192652758e-07,0.018888335085273,6.7941892730242e-05,-1.1829016645903,-0.39638123446346,-2.6927614117272e-07,0.0012249324140938,-0.00017003495197332,-6.3490791764605e-06,5.8491018942636e-05,-0.00018258710826667,4.159407848027,0.0011914391658025,8.0358170688735e-05,0.00066929385623645,9.4688420074021e-05,-0.4343733689419,-0.18621718131383,1.3156576009601e-08,0.00049516748399658,-0.00012087381532387,-0.0065907786178816,-3.8587929396939e-06,0.00025832095229818,2.5268398183088e-05,-1.3802323982357,-0.534899133844,-4.6065641685633e-06,0.0012754876267155,-0.00014195888537983,0.0070002392857852,0.0041942336856103,7.1023270878469e-07,2.3025771004201,0.00064248291094321,1.142739153371e-05,0.012382024957403,3.6247416224529,0.0012287400230187,-0.00070143087248078,2.0877171415932e-05,-0.10207510659734,-9.5502090883465e-05,0.34397109872374,-9.1232625155555e-06,-0.018296750720095,622.0121697693,622.0121697693,622.09113582473,622.09113582473,622.08261285955,623.38497660252,621.35181283065,622.00846322288,623.0142569079,624.29295524853,622.65634833876,622.42351238404,623.17113566736,621.24845972444,623.07401604906,621.47277185263,621.76489490577,622.72157844945,623.64716269336,621.62289998932,621.96743362841,623.37060589924,624.29121469987,623.17113566736,622.42192259874,622.38560674113,621.51437350732,623.05442314628,621.12550064378,622.12424919201,622.61942152026,624.05579343476,622.8830422557,622.35564083886,620.9290145458,621.05103772637,622.87607162375,621.07274614503,621.93438146401,621.51272589661,623.19515225602,622.03787654723,621.73082040809,620.9290145458,622.46213856814,622.46213856814,623.74298822143,623.74298822143,939.97670402272,0.0038436166023398,0.0033184891220782,789.69015414394,-0.016483623031635,781.22648705128,-0.014800343204586,0
3.38671875e-05,805574656.89957,810909889.50718,804465774.2231,0.062463104089687,0.64760436919854,-0.22576307227148,2096275339.1265,1.9254370042923e-06,1.0083723155002e-05,1.7483822626973e-06,1.0000274757032,497.27775796599,497.27775796599,497.4593767487,497.4593767487,497.33821479845,498.71305210135,496.68022588284,497.35612250115,498.28426170243,499.64772063796,498.02913778707,497.76066258337,498.52882354911,496.47380469359,498.41067933272,496.78130053918,497.06259280012,497.99076482617,498.96973801789,496.97280977838,497.32340822736,498.65123142384,499.63086081557,498.52882354911,497.79556829072,497.74181767708,496.76344699448,498.38786797449,496.42793900314,497.46405797236,497.88301262354,499.4187970877,498.25221558446,497.6679342308,496.18621616884,496.2798222277,498.20779923979,496.35947887164,497.24648513942,496.74498929884,498.53881997566,497.36788540258,497.01425205829,496.18621616884,497.79290940582,497.79290940582,499.04675581832,499.04675581832,0.60983216994111,0.0003322266227916,5.8921973213796e-07,0.020926713907445,9.3062545348756e-05,-1.433894366848,-0.45042721992075,-2.9095163693639e-07,0.0017000070248631,-0.00021849842858409,-9.770802339176e-06,7.1905699208605e-05,-0.00021987762855839,5.4083470606722,0.0013528679577364,0.00012043857068302,0.00086020901186863,0.00013053410546293,-0.5345192972696,-0.2092969210507,2.1560650734034e-08,0.00069727123003206,-0.00016450647689656,-0.0057679139174089,-5.9893332768902e-06,0.00028407088684584,3.4950438969694e-05,-1.7704746695171,-0.61504769707198,-4.910667620145e-06,0.0017842307857834,-0.00018679857898613,0.0067561257111369,0.0052839239475274,1.0309496500844e-06,3.0060807182885,0.00072292037642085,1.7095789589432e-05,0.015729633372157,4.6926663705668,0.001405906894905,-0.00047991951514451,2.9436345748109e-05,-0.10471672484584,-0.0001030834731018,0.44753100457821,-2.0819725610525e-05,-0.022309327153152,621.90147857704,621.90147857704,622.08309735975,622.08309735975,621.9619354095,623.3367727124,621.30394649389,621.9798431122,622.90798231348,624.27144124901,622.65285839812,622.38438319442,623.15254416016,621.09752530464,623.03439994377,621.40502115024,621.68631341117,622.61448543722,623.59345862894,621.59653038943,621.94712883841,623.27495203489,624.25458142662,623.15254416016,622.41928890177,622.36553828813,621.38716760553,623.01158858554,621.05165961419,622.08777858341,622.50673323459,624.04251769875,622.87593619551,622.29165484185,620.80993677989,620.90354283875,622.83151985084,620.98319948269,621.87020575047,621.36870990989,623.16254058671,621.99160601363,621.63797266934,620.80993677989,622.41663001687,622.41663001687,623.67047642937,623.67047642937,3525.82759961,0.0039171055714925,0.0033807720407496,803.27296133213,-0.017255291090141,794.6547407772,-0.015520656982747,0
3.44921875e-05,805333536.60066,810392923.89947,804242243.4016,0.062463104089687,0.64760436919854,-0.22576307227148,2093432402.0407,1.964689636533e-06,1.026986942388e-05,1.7814735386229e-06,1.0000349837297,497.11050936207,497.11050936207,497.42759996591,497.42759996591,497.15952174462,498.62450869872,496.59785203356,497.29569828542,498.12309730868,499.59597851101,498.00321916906,497.68687913396,498.48197263188,496.25543460323,498.33446917826,496.67218177275,496.93677914255,497.82904606476,498.87503566615,496.91809910694,497.27475129293,498.50395156996,499.55949991011,498.48197263188,497.77096069309,497.69332823139,496.57690152524,498.30360703596,496.31185913663,497.39222120407,497.71337307365,499.3779750866,498.22122899886,497.56148604926,496.01087167307,496.06654687352,498.12438304778,496.22240051805,497.13900863206,496.53504191267,498.47251242407,497.28615574893,496.87005543319,496.01087167307,497.70770108896,497.70770108896,498.92914322219,498.92914322219,0.77002886006394,0.00045066355208631,8.8385766681607e-07,0.022523040810761,0.00012540541996602,-1.947038125532,-0.50067676897075,-3.1392579929182e-07,0.0022592823796077,-0.00027410220138651,-1.4580751825726e-05,8.6571298065509e-05,-0.00026062920117753,6.9288420319405,0.0015283294908565,0.00017662289167794,0.0011063955727422,0.0001778579557439,-0.68136233864943,-0.2292087805692,3.3752212158808e-08,0.0009327977347045,-0.0002347294021854,-0.0052302353522963,-9.0161205904591e-06,0.00030343115122386,4.7391485227236e-05,-2.4248461641305,-0.69607363124344,-5.2635041830194e-06,0.002390075241032,-0.00024098028281153,0.0066872133009976,0.0065467387500764,1.4628206511491e-06,3.8611428643097,0.00081242654269913,2.5119834536965e-05,0.019907644821997,5.988669813158,0.0015979831674059,-0.00026085987181443,4.2295229542427e-05,-0.10767716607697,-0.00011242075363029,0.57760579466049,-6.4201904959773e-05,-0.027483976296828,621.74803329054,621.74803329054,622.06512389438,622.06512389438,621.79704567308,623.26203262719,621.23537596203,621.93322221389,622.76062123714,624.23350243947,622.64074309753,622.32440306242,623.11949656035,620.8929585317,622.97199310673,621.30970570122,621.57430307102,622.46656999322,623.51255959462,621.55562303541,621.91227522139,623.14147549843,624.19702383858,623.11949656035,622.40848462156,622.33085215986,621.21442545371,622.94113096442,620.94938306509,622.02974513253,622.35089700212,624.01549901506,622.85875292732,622.19900997773,620.64839560153,620.70407080199,622.76190697625,620.85992444651,621.77653256052,621.17256584114,623.11003635253,621.9236796774,621.50757936165,620.64839560153,622.34522501743,622.34522501743,623.56666715066,623.56666715066,1316.7695226537,0.003990953185958,0.003443050962428,816.44367171629,-0.018050301989496,807.67215646192,-0.016248972151895,0
3.51171875e-05,805027059.50392,809750851.00836,803989612.53214,0.062463104089687,0.64760436919854,-0.22576307227148,2091188689.3556,2.0017042973428e-06,1.0456053339597e-05,1.8280996062805e-06,1.0000444030762,496.89749489933,496.89749489933,497.39292872928,497.39292872928,496.94050042204,498.53236984214,496.50104398897,497.22928225272,497.91983304218,499.53874603905,497.97453900645,497.59479275047,498.42827560145,495.97904178161,498.24867947875,496.5381744987,496.78068317064,497.6327117332,498.77344822522,496.85614782171,497.22121355577,498.32066181999,499.47830569264,498.42827560145,497.74414076831,497.63479557928,496.34674637806,498.21648138515,496.17182010044,497.31356079497,497.49787832952,499.33354793953,498.18629401367,497.42674584878,495.79339635276,495.79802485243,498.0316901515,496.05287730554,497.00946613388,496.26833790425,498.39704118013,497.18718047743,496.68829728124,495.79339635276,497.61451618568,497.61451618568,498.78990357567,498.78990357567,0.96040111168825,0.00058453226186545,1.0191437020124e-06,0.023789333370913,0.00016549712962211,-2.3633111210819,-0.58455607289491,-2.9672778985057e-07,0.002876246999433,-0.00059090041779297,-1.4979253769791e-05,0.00010470719281092,-0.00029246022052898,8.7416002041633,0.0016904548145902,0.00026125293281258,0.001824878584975,0.00023748900860226,-0.88407917709131,-0.25636160841506,5.1911837982182e-08,0.0011840457489461,-0.0004597562922637,-0.0047362151344558,-9.1216933002528e-06,0.00031363798011342,6.2923731519491e-05,-3.0197626514878,-0.84333224118462,-5.0216776084886e-06,0.0030665067681888,-0.00047140816347937,0.006677446308116,0.0080688913314965,2.0387087481492e-06,4.8754890844581,0.00089037659112932,3.7476586021324e-05,0.029126635747283,7.533211978455,0.0017778275046912,3.6153355390645e-05,7.3777041254629e-05,-0.14352190983617,-0.00011451859731675,0.78645439456324,-0.00011688178831649,-0.03393029766717,621.55213507691,621.55213507691,622.04756890686,622.04756890686,621.59514059962,623.18701001972,621.15568416655,621.8839224303,622.57447321976,624.19338621663,622.62917918403,622.24943292805,623.08291577903,620.63368195919,622.90331965633,621.19281467628,621.43532334822,622.28735191078,623.4280884028,621.51078799929,621.87585373335,622.97530199757,624.13294587022,623.08291577903,622.3987809459,622.28943575686,621.00138655564,622.87112156273,620.82646027802,621.96820097255,622.1525185071,623.98818811711,622.84093419125,622.08138602636,620.44803653034,620.45266503001,622.68633032908,620.70751748312,621.66410631146,620.92297808183,623.05168135771,621.84182065501,621.34293745882,620.44803653034,622.26915636326,622.26915636326,623.44454375325,623.44454375325,2899.1383094928,0.0040649522514177,0.0035053271568243,829.09302363712,-0.018702159170871,820.22049665453,-0.016764353492686,0
3.57421875e-05,804619011.32116,808829796.54895,803500907.88546,0.062463104089687,0.64760436919854,-0.22576307227148,2089700990.7684,2.0360862231222e-06,1.0642238073566e-05,1.8759167485384e-06,1.0000563970352,496.61989709099,496.61989709099,497.3233891891,497.3233891891,496.62462848599,498.34807110238,496.34002893945,497.09418816276,497.64970596604,499.42516591088,497.92237923589,497.4654423884,498.33035912244,495.61382421488,498.08252310004,496.34259639706,496.5488579266,497.34297913393,498.58028207036,496.7430134673,497.11231451461,498.06635620608,499.33173648223,498.33035912244,497.69341417634,497.54385367174,496.0191974332,498.03588866643,495.9551258385,497.15396871636,497.21792907373,499.24003751239,498.12380905135,497.24638684166,495.48572595834,495.43716155612,497.84912100058,495.81049345162,496.79747348055,495.91955024586,498.2538949772,497.03610787459,496.43632353438,495.48572595834,497.42748866775,497.42748866775,498.56912529946,498.56912529946,1.1799557906435,0.00072380005674854,1.47340576165e-06,0.024666592384437,0.00021376283976964,-3.1286705402883,-0.71962836719629,-2.7411786543824e-07,0.0035000366536807,-0.00085126411192966,-2.1515388367828e-05,0.00012578322114696,-0.000328666874397,10.83675951999,0.0018713941509283,0.00037042657369933,0.0018972610813696,0.0003114743341061,-1.1542676209756,-0.2777498294949,7.6152679412148e-08,0.0014313922803765,-0.00064695840167003,-0.0042950146125017,-1.3294554831835e-05,0.00031838987269241,8.1530001706409e-05,-4.2374916724667,-1.3233012576951,-4.7798251656913e-06,0.0037610987221866,-0.00066763127169169,0.0066703504474366,0.0098289106551466,2.7613127242583e-06,6.0455833079494,0.00098035496783792,5.3567978363157e-05,0.033175668531897,9.3205591344334,0.0019763591176508,0.00037840249257632,8.5543922880278e-05,-0.16341076839153,-0.00011859455030806,1.1083147795168,-0.0001732370600475,-0.041470916864579,621.302362688,621.302362688,622.00585478611,622.00585478611,621.30709408299,623.03053669938,621.02249453645,621.77665375976,622.33217156305,624.10763150789,622.60484483289,622.1479079854,623.01282471944,620.29628981188,622.76498869705,621.02506199406,621.2313235236,622.02544473094,623.26274766736,621.42547906431,621.79478011162,622.74882180309,624.01420207923,623.01282471944,622.37587977335,622.22631926875,620.7016630302,622.71835426344,620.6375914355,621.83643431337,621.90039467074,623.9225031094,622.80627464835,621.92885243866,620.16819155535,620.11962715312,622.53158659759,620.49295904862,621.47993907756,620.60201584287,622.93636057421,621.71857347159,621.11878913139,620.16819155535,622.10995426475,622.10995426475,623.25159089646,623.25159089646,1487.2923550393,0.0041397974284825,0.0035675984554406,841.16515425857,-0.019552976072893,832.14015677958,-0.0176223513659,0
3.60546875e-05,804370946.74886,808250214.07177,803199697.00902,0.062463104089687,0.64760436919854,-0.22576307227148,2089252715.0182,2.0517834085212e-06,1.073535639889e-05,1.9035511003765e-06,1.0000636079594,496.44981783588,496.44981783588,497.28588467099,497.28588467099,496.42978680309,498.1878798442,496.2467637607,497.00103153426,497.48201911179,499.33893650371,497.89709153455,497.38663180282,498.26735888962,495.39431962279,497.95642065854,496.23058786142,496.39848781206,497.15841905143,498.42698672266,496.68095920425,497.04271240952,497.90505521753,499.22297051519,498.26735888962,497.6697709785,497.4899462931,495.82187445295,497.86892364541,495.82072609131,497.03640304846,497.04606352077,499.17042264879,498.0899926925,497.13556122466,495.3043676773,495.22227666052,497.70458256105,495.67072994255,496.65206091262,495.7081787762,498.15074550387,496.94854925814,496.27825734169,495.3043676773,497.27753236175,497.27753236175,498.41760357124,498.41760357124,1.3236447005833,0.00081234592272707,1.7216541197645e-06,0.025851960041765,0.00024529648492962,-3.884872253028,-0.69446917366722,-2.488669784567e-07,0.0039149471017458,-0.0013703835103313,-2.4210563816402e-05,0.00013792378627905,-0.000333257143537,12.291517078503,0.0019480733524788,0.00044679779779992,0.0020935037305299,0.00035646113366819,-1.3059628697108,-0.29565966542656,8.9553915206312e-08,0.0015911866570227,-0.0013452118468633,-0.0040684137671788,-1.5167575980839e-05,0.00032484048769398,9.4686367523562e-05,-6.9698154719058,-1.8706617756091,-4.4154477692422e-06,0.0042228949274589,-0.0007782979989039,0.0066212743335277,0.010887826893518,3.3004622206388e-06,6.8485295805741,0.0010178420405395,6.4977422892307e-05,0.035533556269944,10.553852831735,0.0020570950305517,0.00061394334410128,9.8900083494912e-05,-0.13541833556002,-0.00011774437126471,1.2949763438158,-0.00024476938195267,-0.046607010289878,621.16312795281,621.16312795281,621.99919478792,621.99919478792,621.14309692001,622.90118996113,620.96007387762,621.71434165118,622.19532922871,624.05224662063,622.61040165147,622.09994191974,622.98066900654,620.10762973971,622.66973077547,620.94389797834,621.11179792899,621.87172916835,623.14029683958,621.39426932118,621.75602252644,622.61836533445,623.93628063211,622.98066900654,622.38308109543,622.20325641003,620.53518456988,622.58223376234,620.53403620823,621.74971316539,621.7593736377,623.88373276572,622.80330280942,621.84887134158,620.01767779422,619.93558677745,622.41789267797,620.38404005948,621.36537102954,620.42148889312,622.86405562079,621.66185937506,620.99156745861,620.01767779422,621.99084247868,621.99084247868,623.13091368816,623.13091368816,5331.1578358186,0.0041774040165147,0.0035987327122219,846.92445041203,-0.020006155618874,837.81178161894,-0.018168636896785,0
3.61328125e-05,804302849.45953,808098177.46377,803131377.2124,0.062463104089687,0.64760436919854,-0.22576307227148,2089172727.3355,2.0559765373238e-06,1.0758634656288e-05,1.9102631012049e-06,1.000065453436,496.4026012472,496.4026012472,497.27773941102,497.27773941102,496.37875274913,498.15170158917,496.22546695533,496.98056486069,497.43607703697,499.31972357329,497.89131227383,497.36572231602,498.25272935958,495.33358641292,497.92793482547,496.20137657194,496.35999378814,497.11083391763,498.39194158409,496.66712830742,497.0274585772,497.86206004865,499.19780075782,498.25272935958,497.66454510971,497.47640569549,495.76980131258,497.83237319802,495.79006570288,497.01051656462,496.9982750435,499.15523788618,498.08210422253,497.10534069092,495.256807424,495.1633923482,497.6720961063,495.63411777143,496.61681817802,495.64942917497,498.12725250147,496.92620641841,496.23605319199,495.256807424,497.24422900884,497.24422900884,498.38025117156,498.38025117156,1.3773174152246,0.00084702364552646,1.7988338823443e-06,0.026719519173445,0.0002561810205205,-3.9395186991558,-0.72343648532017,-2.4394809583545e-07,0.0040886163888901,-0.0012477302200854,-2.5204650203125e-05,0.0001416827654687,-0.00033552596974044,12.877352982719,0.0019694418099561,0.00046873953492619,0.002176850402439,0.00037033461621331,-1.3495319714869,-0.30787000031916,9.2607855009875e-08,0.0016581748210732,-0.0013525209215148,-0.0039923082022915,-1.5832942938919e-05,0.00033077233210333,9.9667387957297e-05,-7.0051948656641,-1.3462390107996,-4.3193273016424e-06,0.0044150619216452,-0.00073019971239902,0.0065571157119193,0.011236875263117,3.5057745120133e-06,7.1685338367297,0.0010284520069891,6.816915505668e-05,0.036557522200327,11.046770239988,0.0020796584764914,0.00068301093785959,0.00010340512231475,-0.13696883730821,-0.00011761583426698,1.263258464237,-0.00026936755833355,-0.048439166410785,621.12264667816,621.12264667816,621.99778484198,621.99778484198,621.09879818008,622.87174702012,620.94551238628,621.70061029164,622.15612246793,624.03976900424,622.61135770479,622.08576774697,622.97277479054,620.05363184387,622.64798025642,620.9214220029,621.08003921909,621.83087934858,623.11198701504,621.38717373837,621.74750400815,622.58210547961,623.91784618877,622.97277479054,622.38459054067,622.19645112644,620.48984674354,622.55241862897,620.51011113383,621.73056199558,621.71832047445,623.87528331714,622.80214965348,621.82538612187,619.97685285496,619.88343777915,622.39214153726,620.35416320238,621.33686360897,620.36947460592,622.84729793242,621.64625184936,620.95609862295,619.97685285496,621.9642744398,621.9642744398,623.10029660252,623.10029660252,9316.4671857947,0.0041868311150537,0.0036065161436597,848.35429814336,-0.020130291715335,839.21808132133,-0.018312423663135,0
3.62890625e-05,804161196.30271,807787276.44468,802997660.12009,0.062463104089687,0.64760436919854,-0.22576307227148,2089029268.1344,2.0646165085284e-06,1.080519073052e-05,1.9236290930394e-06,1.0000692857782,496.30415448609,496.30415448609,497.2614675577,497.2614675577,496.27406039317,498.07966497502,496.18162976065,496.94110573282,497.3408318571,499.28324941845,497.87937808698,497.32256698846,498.22396201278,495.20679147581,497.87309152066,496.14067596706,496.28184232824,497.0141089275,498.3243873957,496.63896343622,496.99781969943,497.773827435,499.1492355064,498.22396201278,497.65372042838,497.44875106778,495.66222730956,497.75445000417,495.72658769775,496.96072265509,496.89866157664,499.12657591237,498.06611531798,497.04261006467,495.15778337325,495.04051857963,497.60929730392,495.55776031231,496.54666639621,495.52677329942,498.08186891676,496.88025231529,496.14913028618,495.15778337325,497.17951872102,497.17951872102,498.30600450392,498.30600450392,1.4364192742207,0.00088031520116173,1.9621338854364e-06,0.026430847517584,0.00026951284757604,-3.8010002324075,-0.73875308693013,-2.4202561467515e-07,0.0042310063425999,-0.0010683649794869,-2.7300545890346e-05,0.00014744658239104,-0.00034153798068589,13.448429223025,0.0020068229667559,0.00050918126100637,0.0023057306099367,0.00039239644949386,-1.4198068553042,-0.31062340721196,9.7208269338002e-08,0.0017110838321627,-0.0011144837525884,-0.003844613515047,-1.7241629538423e-05,0.00032594822987941,0.00010459002956718,-7.5798657048482,-1.2510315362023,-4.1553479619334e-06,0.0045774503778434,-0.0007151430561079,0.0066230201163985,0.011716409655887,3.7176305413698e-06,7.4880632024515,0.0010467597566405,7.4237686589102e-05,0.038450140748704,11.531282999017,0.0021210425339902,0.00080450113096228,0.00011110277817107,-0.13825385384014,-0.00011740527660542,1.2325645951208,-0.00028416006312868,-0.050761343481712,621.04105823936,621.04105823936,621.99837131098,621.99837131098,621.01096414645,622.8165687283,620.91853351392,621.6780094861,622.07773561037,624.02015317172,622.61628184026,622.05947074174,622.96086576606,619.94369522909,622.60999527394,620.87757972034,621.01874608152,621.75101268077,623.06129114898,621.3758671895,621.73472345271,622.51073118828,623.88613925968,622.96086576606,622.39062418166,622.18565482105,620.39913106284,622.49135375745,620.46349145103,621.69762640836,621.63556532991,623.86347966565,622.80301907126,621.77951381795,619.89468712653,619.77742233291,622.3462010572,620.29466406559,621.28357014949,620.2636770527,622.81877267003,621.61715606857,620.88603403946,619.89468712653,621.9164224743,621.9164224743,623.04290825719,623.04290825719,13979.31770918,0.004205722400695,0.0036220827876496,851.18142767214,-0.020376942876728,841.99544802294,-0.018598223447916,0
3.6328125e-05,804124575.43188,807709825.78328,802967444.51971,0.062463104089687,0.64760436919854,-0.22576307227148,2088999916.4802,2.0670179052118e-06,1.0816828524661e-05,1.9267670744111e-06,1.0000702355979,496.27864295823,496.27864295823,497.2576719694,497.2576719694,496.24785195703,498.06867598013,496.17058985857,496.93302420766,497.31637930209,499.27591850541,497.87635372361,497.31164380845,498.21747552314,495.17382345379,497.86228506048,496.12505130477,496.26291216236,496.99044566267,498.31185320358,496.6320527972,496.99147343017,497.75166290264,499.13900344747,498.21747552314,497.65097013104,497.44192712808,495.63485787698,497.74401297755,495.71036687247,496.95100147241,496.87282062854,499.12088392136,498.06221472371,497.02651782378,495.13217070198,495.00859518624,497.59760555676,495.53795117876,496.53078216885,495.49488788508,498.07243011837,496.86868481474,496.12724670177,495.13217070198,497.16784332946,497.16784332946,498.28893059429,498.28893059429,1.466805422228,0.00089953976427699,2.006089942549e-06,0.026918225496453,0.00027547407822288,-3.8086336764198,-0.75516896085559,-2.405207688475e-07,0.0043281937729669,-0.0010544004455933,-2.791624234462e-05,0.00014949409861098,-0.00034309891208141,13.787673503787,0.0020185416446077,0.00052075609492961,0.0023549079957348,0.00039999400759986,-1.4508994362826,-0.31742611220272,9.8826246174918e-08,0.0017482887697958,-0.0010825178634507,-0.0037993879656023,-1.7645437560659e-05,0.00032925586156397,0.00010734945007315,-6.2561644957525,-1.2438268017222,-4.1139005832031e-06,0.0046853395139888,-0.00072080648899698,0.0065846941319828,0.011908279428748,3.8327438583977e-06,7.6718113070975,0.0010527196526473,7.5896879335416e-05,0.039281184996804,11.816008109768,0.0021333451125805,0.00084121876463503,0.00011357896593525,-0.14129253488035,-0.00011748328670236,1.2524358293946,-0.00028606726069635,-0.051784199870028,621.01767383553,621.01767383553,621.99670284671,621.99670284671,620.98688283434,622.80770685744,620.90962073588,621.67205508497,622.0554101794,624.01494938272,622.61538460092,622.05067468576,622.95650640045,619.9128543311,622.60131593779,620.86408218208,621.00194303967,621.72947653998,623.05088408089,621.37108367451,621.73050430748,622.49069377994,623.87803432478,622.95650640045,622.39000100835,622.18095800539,620.37388875429,622.48304385486,620.44939774978,621.69003234972,621.61185150585,623.85991479867,622.80124560102,621.76554870109,619.87120157929,619.74762606355,622.33663643407,620.27698205607,621.26981304616,620.23391876239,622.81146099568,621.60771569205,620.86627757907,619.87120157929,621.90687420677,621.90687420677,623.0279614716,623.0279614716,16262.900339454,0.0042104481643869,0.003625974392699,851.88832600616,-0.020433873238162,842.69095936403,-0.018659060421437,0
3.640625e-05,804049580.83076,807551348.57315,802905786.64591,0.062463104089687,0.64760436919854,-0.22576307227148,2088944717.1681,2.072090569436e-06,1.0840102724648e-05,1.9328203275741e-06,1.0000721443377,496.22638108361,496.22638108361,497.24992296118,497.24992296118,496.19420684371,498.04644109884,496.14799911678,496.91655641836,497.26630181241,499.26098592364,497.87016993275,497.28928604165,498.20423232666,495.10627649225,497.84027458769,496.09305648423,496.22418709018,496.94203345923,498.28635903,496.6179230652,496.97853271604,497.70629377686,499.11813702877,498.20423232666,497.6453476025,497.42797077568,495.57881718006,497.72301366031,495.67715915682,496.93120927526,496.81988542606,499.10929476508,498.05424240713,496.99356518256,495.07970983988,494.94319238338,497.57382120932,495.49737816705,496.49833232533,495.42955898703,498.0531852273,496.84501072074,496.08244433694,495.07970983988,497.14411098534,497.14411098534,498.25404423619,498.25404423619,1.497270301807,0.00091589114312863,2.0970557146722e-06,0.026754235558277,0.00028243893739589,-3.8720994457528,-0.7622399610482,-2.375960671192e-07,0.0043967090941481,-0.0010646667997644,-2.9243829545409e-05,0.00015254255668087,-0.00034661773481066,14.080211970695,0.0020391865149172,0.00054050030683304,0.0024162419913853,0.0004118203419434,-1.4938856357185,-0.3185050511483,1.0219671296919e-07,0.001773486349327,-0.0010930318281557,-0.0037183578330119,-1.8506199595733e-05,0.00032662843181425,0.00010987866258408,-5.6396095916352,-1.2294336510486,-4.0443408880492e-06,0.0047643078856147,-0.00073622480178765,0.0066098354774764,0.012158126954026,3.9415124724443e-06,7.8345674928689,0.0010631732408658,7.8832601833941e-05,0.040309118520544,12.064910461113,0.0021558206406781,0.00090073041650937,0.00011745939801897,-0.14251330235765,-0.0001177132471589,1.2819962215044,-0.00029890983485587,-0.052970346311004,620.96959260711,620.96959260711,621.99313448468,621.99313448468,620.93741836721,622.78965262234,620.89121064028,621.65976794186,622.00951333591,624.00419744714,622.61338145625,622.03249756515,622.94744385016,619.84948801575,622.58348611119,620.83626800773,620.96739861368,621.68524498273,623.0295705535,621.3611345887,621.72174423954,622.44950530036,623.86134855227,622.94744385016,622.388559126,622.17118229918,620.32202870356,622.46622518381,620.42037068032,621.67442079876,621.56309694956,623.85250628858,622.79745393063,621.73677670606,619.82292136338,619.68640390688,622.31703273282,620.24058969055,621.24154384883,620.17277051053,622.7963967508,621.58822224424,620.82565586044,619.82292136338,621.88732250884,621.88732250884,622.99725575969,622.99725575969,5543.3559396384,0.0042199051581225,0.003633757529091,853.2972319606,-0.020542188953364,844.0789078199,-0.01876934726009,0
3.65625e-05,803896486.23521,807227499.55403,802779535.28139,0.062463104089687,0.64760436919854,-0.22576307227148,2088846683.8905,2.0825502237554e-06,1.0886649961285e-05,1.9447328406105e-06,1.0000760977754,496.11965429029,496.11965429029,497.2341290333,497.2341290333,496.08459968308,498.00101098122,496.10193441299,496.88283573115,497.1639909416,499.23032251108,497.85759835723,497.24363872688,498.17712703742,494.96834460847,497.79517646043,496.02778741788,496.14503232522,496.84307008504,498.23415701872,496.58912474071,496.95205772183,497.61355805681,499.07534883882,498.17712703742,497.63393207588,497.39948471697,495.46436360191,497.68023518837,495.60941932238,496.89067446962,496.71176837993,499.08548441882,498.03798723531,496.92627802539,494.97263623712,494.80965544141,497.52511820353,495.41460654253,496.43195705235,495.29614750302,498.01374742559,496.79669735363,495.99091530651,494.97263623712,497.09554082446,497.09554082446,498.18264738436,498.18264738436,1.5589636120312,0.00094622587448697,2.2886123227011e-06,0.026463997637395,0.00029662528937897,-4.0805263323884,-0.77757453943856,-2.299357534069e-07,0.0045222682768628,-0.001103367242636,-3.2111151918047e-05,0.00015881355159187,-0.00035440691594777,14.669402533853,0.0020825668579132,0.0005797901073748,0.0025421567344858,0.00043613067434904,-1.5843377016581,-0.32109168471768,1.0966480840649e-07,0.00181860581441,-0.0011407881070743,-0.0035542913769322,-2.0356725372471e-05,0.00032180228592505,0.00011499368352981,-5.5509514090292,-1.2344272690594,-3.907395443932e-06,0.0049099583648847,-0.0007707073523321,0.0066378066104281,0.012667245491839,4.1610532572311e-06,8.1613586102433,0.0010852615317507,8.4668432519003e-05,0.042443037075291,12.567376413571,0.0022028021006535,0.0010192516172511,0.00012542129087303,-0.14576684749361,-0.00011835126813613,1.3554278740396,-0.00032565353577539,-0.055445056990102,620.87121352703,620.87121352703,621.98568827003,621.98568827003,620.83615891982,622.75257021796,620.85349364972,621.63439496788,621.91555017833,623.98188174782,622.60915759397,621.99519796361,622.92868627415,619.71990384521,622.54673569716,620.77934665461,620.89659156196,621.59462932178,622.98571625546,621.34068397745,621.70361695856,622.36511729354,623.82690807555,622.92868627415,622.38549131262,622.15104395371,620.21592283864,622.4317944251,620.36097855912,621.64223370635,621.46332761666,623.83704365556,622.78954647205,621.67783726212,619.72419547385,619.56121467814,622.27667744027,620.16616577927,621.18351628909,620.04770673975,622.76530666232,621.54825659036,620.74247454324,619.72419547385,621.84710006119,621.84710006119,622.9342066211,622.9342066211,2680.1940523487,0.0042388524572643,0.0036493235808641,856.07878002226,-0.020752918274372,846.82061262345,-0.018978365809325,0
3.6875e-05,803577779.9726,806551375.06256,802514255.58309,0.062463104089687,0.64760436919854,-0.22576307227148,2088692005.993,2.1039481587846e-06,1.0979744550224e-05,1.9685139481884e-06,1.0000846706781,495.8973057358,495.8973057358,497.20126288265,497.20126288265,495.85585455815,497.90500768938,496.00617596907,496.81185485447,496.95060993087,499.16539130645,497.83161150632,497.14853654615,498.1202365782,494.681031947,497.70006672771,495.89206555724,495.97961807125,496.63624993894,498.12403859867,496.52927477399,496.89647139337,497.41988101039,498.9850939037,498.1202365782,497.61039576829,497.34013382844,495.22577541121,497.58987559207,495.46854500496,496.80523704922,496.48645941156,499.03499439148,498.00417010928,496.78609806338,494.7497855186,494.53155796225,497.4223880533,495.24250409698,496.29286729324,495.0182167244,497.93064546441,496.69611115089,495.79998004037,494.7497855186,496.99311107501,496.99311107501,498.03291256039,498.03291256039,1.683754015587,0.00099754794560853,2.7088382063802e-06,0.025972065251487,0.00032557446779314,-4.5784645335437,-0.81253056839409,-2.1184910441901e-07,0.0047296234198433,-0.0012029785275899,-3.8570833272788e-05,0.0001718800670957,-0.00037076115575745,15.84924230187,0.002173361063942,0.00065855399962324,0.002813601781861,0.00048664269817904,-1.7816436001522,-0.32765497768671,1.2579247866176e-07,0.0018887952862149,-0.0012701539315966,-0.0032258114249001,-2.4519533275527e-05,0.00031322460008449,0.0001252711358654,-5.9949935887401,-1.2860469612715,-3.6197514386838e-06,0.0051536739337021,-0.00084570802704369,0.0066429937977536,0.013710357432229,4.6029130672469e-06,8.8124562461412,0.0011316502795239,9.6379094512124e-05,0.047106603423494,13.577417446045,0.0023003388788079,0.0012564748225224,0.00014233019728236,-0.15591666912158,-0.00011979291739896,1.5259406186646,-0.00038544206142786,-0.06079187342764,620.66619378789,620.66619378789,621.97015093473,621.97015093473,620.62474261023,622.67389574147,620.77506402116,621.58074290655,621.71949798296,623.93427935854,622.60049955841,621.91742459824,622.88912463028,619.44991999909,622.4689547798,620.66095360932,620.74850612334,621.40513799103,622.89292665076,621.29816282608,621.66535944546,622.18876906247,623.75398195578,622.88912463028,622.37928382037,622.10902188053,619.9946634633,622.35876364415,620.23743305705,621.5741251013,621.25534746364,623.80388244357,622.77305816137,621.55498611547,619.51867357068,619.30044601434,622.19127610538,620.01139214907,621.06175534532,619.78710477648,622.6995335165,621.46499920297,620.56886809245,619.51867357068,621.7619991271,621.7619991271,622.80180061248,622.80180061248,1379.8732044857,0.0042768966843051,0.0036804548839382,861.47549297769,-0.021164301888246,852.14023515548,-0.019382123168829,0
3.75e-05,802889331.15438,805076367.81804,801920205.36493,0.062463104089687,0.64760436919854,-0.22576307227148,2088499428.3429,2.1477078853134e-06,1.1165941702746e-05,2.0168906747602e-06,1.0001047485477,495.41649225712,495.41649225712,497.12926605631,497.12926605631,495.35783032263,497.68474372763,495.79918220453,496.65157982913,496.48773585979,499.01694899994,497.77598013875,496.94221385165,497.99348258926,494.06017769492,497.48474550243,495.59938944474,495.61736619721,496.1838462958,497.87439021532,496.39948171276,496.77179800559,496.99769157673,498.78140358742,497.99348258926,497.56024674327,497.21089458359,494.70823896027,497.3816625234,495.1643956941,496.61159578223,495.99903638474,498.91894088018,497.93060044479,496.48257236625,494.26868157976,493.93081001263,497.18931279321,494.87178434496,495.98499012049,494.41748359773,497.74320966749,496.47812043982,495.38476727308,494.26868157976,496.76045426914,496.76045426914,497.70144122879,497.70144122879,1.9343296851118,0.001067646477349,3.7023128047374e-06,0.025234522884904,0.00038429229029724,-5.7743994282625,-0.89749042540358,-1.71010013153e-07,0.0049986352914026,-0.0014366401589568,-5.4440214953692e-05,0.00019971353938155,-0.00040098585803679,18.172838631097,0.0023600269676496,0.00081382446834621,0.0034317767898632,0.0005925529265441,-2.2399837410662,-0.34540812063514,1.5994331990987e-07,0.0019629991152903,-0.0015932706391086,-0.0025844430825838,-3.4766933389141e-05,0.00029918859159264,0.00014552486587322,-7.4277403962427,-1.4430321211006,-2.9541773393066e-06,0.0054799758263888,-0.0010054614882493,0.0065592399608426,0.015860795830792,5.4812787254398e-06,10.08190053085,0.0012271535133393,0.0001195700623908,0.058124724174944,15.581167447217,0.0024981086418501,0.0017223173641788,0.0001797400323995,-0.19118528300418,-0.00012234677551915,1.942054799294,-0.00053564561604822,-0.072946034256467,620.22385052199,620.22385052199,621.93662432118,621.93662432118,620.1651885875,622.4921019925,620.6065404694,621.458938094,621.29509412467,623.82430726482,622.58333840362,621.74957211652,622.80084085413,618.86753595979,622.2921037673,620.40674770961,620.42472446208,620.99120456067,622.68174848019,621.20683997763,621.57915627047,621.8050498416,623.58876185229,622.80084085413,622.36760500814,622.01825284846,619.51559722515,622.18902078827,619.97175395897,621.4189540471,620.80639464961,623.72629914505,622.73795870966,621.28993063113,619.07603984464,618.7381682775,621.99667105809,619.67914260983,620.79234838536,619.22484186261,622.55056793236,621.28547870469,620.19212553795,619.07603984464,621.56781253402,621.56781253402,622.50879949366,622.50879949366,772.86122098669,0.0043536246748308,0.003742714416709,871.55129555564,-0.021968012320275,862.06512172127,-0.020171922465684,0
3.8125e-05,802099016.812,803344568.81587,801180080.11034,0.062463104089687,0.64760436919854,-0.22576307227148,2088428876.4671,2.2008282021862e-06,1.1352162478914e-05,2.0662446349854e-06,1.000128611775,494.86426741729,494.86426741729,497.04295506407,497.04295506407,494.77597499853,497.393794719,495.55994563929,496.44791044044,495.95215123632,498.82436024736,497.71248544814,496.70281148693,497.83727398382,493.34836420044,497.20992624949,495.26408411735,495.18844989522,495.64955697423,497.55411584179,496.24786212403,496.61548212074,496.50351098805,498.52386094148,497.83727398382,497.50344655832,497.05925054037,494.10866629992,497.1033681477,494.81466399662,496.36342792205,495.43868009584,498.76678790763,497.84399528552,496.1324673009,493.71709476028,493.24220473127,496.88985523791,494.44847095371,495.61110637993,493.72848169621,497.50622851876,496.22533615218,494.90134892439,493.71709476028,496.46034384579,496.46034384579,497.29921968368,497.29921968368,2.2293251292655,0.0011378061614667,4.7398214109977e-06,0.025354898045799,0.00044857522744717,-7.3267957600967,-1.0192315420125,-1.7707338978604e-07,0.0053071752720941,-0.0022088546866362,-6.9531478609769e-05,0.00023051632102316,-0.00041065497260238,21.075432242536,0.0025281376162711,0.00098921309805145,0.0042108825621595,0.0007061892114627,-2.8150985570112,-0.37669690335491,1.7529257118218e-07,0.0020407629726959,-0.003561914743882,-0.0017704071698964,-4.4791286532905e-05,0.00029122083049789,0.0001686617795496,-9.521759272026,-1.6860574600483,-2.1071999857652e-06,0.0058499295358941,-0.0012959248669569,0.0063898386944163,0.018244877783386,6.5358073988382e-06,11.641149891018,0.0013135428359745,0.00014565103441689,0.072047314368472,18.070073403693,0.0026694115299673,0.0022658260879117,0.00022566855247459,-0.24608979106149,-0.00012234155153166,2.4896060629589,-0.0010970231454573,-0.088069256103236,619.72005896325,619.72005896325,621.89874661004,621.89874661004,619.6317665445,622.24958626496,620.41573718525,621.3037019864,620.80794278229,623.68015179332,622.5682769941,621.5586030329,622.69306552979,618.2041557464,622.06571779545,620.11987566332,620.04424144119,620.5053485202,622.40990738776,621.10365366999,621.4712736667,621.35930253401,623.37965248745,622.69306552979,622.35923810428,621.91504208633,618.96445784589,621.95915969366,619.67045554258,621.21921946802,620.2944716418,623.6225794536,622.69978683149,620.98825884686,618.57288630625,618.09799627724,621.74564678387,619.30426249968,620.4668979259,618.58427324218,622.36202006472,621.08112769815,619.75714047035,618.57288630625,621.31613539176,621.31613539176,622.15501122964,622.15501122964,922.58164751076,0.0044311461369446,0.0038049701292877,880.69974255369,-0.02271203818571,871.06910383966,-0.02088917674545,0
3.84375e-05,801643663.92287,802327539.09628,800725555.53129,0.062463104089687,0.64760436919854,-0.22576307227148,2088429310.3263,2.2276082959442e-06,1.1445279931695e-05,2.0917293694091e-06,1.0001419612867,494.54580726157,494.54580726157,496.99141554547,496.99141554547,494.43541933283,497.20263097722,495.42102597809,496.32067822694,495.64121936094,498.70228481025,497.67589508142,496.56366049456,497.74199901549,492.9382787076,497.03694134595,495.07089855698,494.93491577883,495.33407745327,497.35085441888,496.15904024488,496.51898774409,496.21388575183,498.36347844404,497.74199901549,497.47092824488,496.97032000611,493.76013371619,496.9164576139,494.61248780279,496.20679453586,495.11513528229,498.6697479244,497.79289783372,495.92991700616,493.39914429246,492.84549208183,496.69940945447,494.20525067804,495.38525457191,493.33148285177,497.35864710663,496.07824838729,494.61954235467,493.39914429246,496.26829041708,496.26829041708,497.05644354475,497.05644354475,2.4377601886425,0.001200139570279,5.399296344084e-06,0.026156003788683,0.00048592731000231,-8.282366581786,-1.109963292446,-2.0675728903518e-07,0.0056256670859524,-0.0021649645656819,-7.9764183993674e-05,0.00024810397371213,-0.00040639823561165,23.388502510115,0.0025992846354355,0.0010909489915655,0.0047263098440682,0.00076884711041965,-3.1813932957032,-0.40417677237906,1.7791927101391e-07,0.0021358122786408,-0.0034066433776361,-0.001331570256109,-5.162270334303e-05,0.00029176089586474,0.00018345379975182,-11.216820221842,-1.8414788475048,-1.6320933340025e-06,0.0062199031936462,-0.0013803773706788,0.0062428042074466,0.019688905378104,7.2371217678917e-06,12.868766312106,0.0013506290934969,0.00016039363943757,0.080926987030837,20.018395501635,0.0027383289789545,0.0025839159978639,0.00025474709863489,-0.27860653536155,-0.00012113889202162,2.8054734860701,-0.0012007008097475,-0.097803479026873,619.43426869616,619.43426869616,621.87987698006,621.87987698006,619.32388076742,622.09109241181,620.30948741268,621.20913966153,620.52968079553,623.59074624484,622.56435651601,621.45212192915,622.63046045008,617.82674014219,621.92540278054,619.95935999157,619.82337721342,620.22253888786,622.23931585347,621.04750167947,621.40744917868,621.10234718642,623.25193987863,622.63046045008,622.35938967946,621.8587814407,618.64859515078,621.80491904849,619.50094923738,621.09525597045,620.00359671688,623.55820935899,622.68135926831,620.81837844074,618.28760572705,617.73395351642,621.58787088906,619.09371211262,620.2737160065,618.21994428636,622.24710854122,620.96670982188,619.50800378926,618.28760572705,621.15675185167,621.15675185167,621.94490497934,621.94490497934,3151.867170563,0.0044702657907104,0.0038360964925755,884.93246000244,-0.023120032600345,875.22331967293,-0.021303346114698,0
3.875e-05,801143105.79145,801212418.8544,800231664.09436,0.062463104089687,0.64760436919854,-0.22576307227148,2088448183.0088,2.2547764440352e-06,1.1538400403794e-05,2.1173642129224e-06,1.0001563267412,494.19476226605,494.19476226605,496.93573049213,496.93573049213,494.06099279901,497.00167815176,495.26866808799,496.18491560152,495.29835593749,498.57111934122,497.63587288997,496.41122669201,497.63865308488,492.48547339367,496.85255510671,494.85834327483,494.65851710997,494.9881237449,497.13447151638,496.06209254509,496.41551803109,495.89525655313,498.19040568589,497.63865308488,497.435464394,496.87338942964,493.37627920357,496.71700848154,494.39013150536,496.0405377461,494.75806180701,498.56559295589,497.73707888494,495.70733321447,493.04853049272,492.40751272351,496.49762687316,493.93723380139,495.14130092155,492.89323635746,497.20023029287,495.91689705098,494.31050382621,493.04853049272,496.06547625152,496.06547625152,496.79206998409,496.79206998409,2.5886690091121,0.0012154403274472,6.1473428944067e-06,0.025892359609159,0.00051468644493553,-9.201281723007,-1.1768712531953,-2.5052930201693e-07,0.0056969559349633,-0.0022772863185911,-9.2120306978975e-05,0.00026434175085354,-0.00039804283670788,24.926025433114,0.0026606423320905,0.0011794315011668,0.0052106728120127,0.00082519511978159,-3.5400734758459,-0.41969043123759,1.7629385547351e-07,0.0021348718066294,-0.0036211733872458,-0.00094409148972733,-5.9819560389797e-05,0.00028443769935478,0.00019301484293306,-12.262883113258,-1.9665736699343,-1.1635229897346e-06,0.0063139470464873,-0.0014775146083559,0.0061782114591691,0.020898232268102,7.7061571149881e-06,13.677016577118,0.001382804764115,0.00017362895418875,0.089816603148776,21.335311454273,0.0027961460738051,0.0028539714507062,0.00028248272319702,-0.31622961031178,-0.00011955673934325,3.1250992164383,-0.0013608894722363,-0.10668433498652,619.12175152023,619.12175152023,621.86271974631,621.86271974631,618.98798205319,621.92866740593,620.19565734216,621.1119048557,620.22534519166,623.4981085954,622.56286214414,621.33821594618,622.56564233905,617.41246264784,621.77954436088,619.78533252901,619.58550636414,619.91511299907,622.06146077055,620.98908179927,621.34250728527,620.82224580731,623.11739494007,622.56564233905,622.36245364818,621.80037868382,618.30326845774,621.64399773572,619.31712075954,620.96752700027,619.68505106118,623.49258221007,622.66406813911,620.63432246865,617.97551974689,617.33450197768,621.42461612734,618.86422305557,620.06829017573,617.82022561164,622.12721954705,620.84388630515,619.23749308038,617.97551974689,620.99246550569,620.99246550569,621.71905923827,621.71905923827,5355.7322855895,0.0045096126758456,0.0038672218125404,888.91861902656,-0.023518923719836,879.13051221243,-0.021706422819499,0
3.890625e-05,800877334.46674,800615815.71928,799962322.51721,0.062463104089687,0.64760436919854,-0.22576307227148,2088463804.2906,2.2657995955892e-06,1.1584960818455e-05,2.1314084047876e-06,1.0001639105961,494.00827087687,494.00827087687,496.905730863,496.905730863,493.86086174732,496.89430244709,495.18744063194,496.11122343708,495.11561097223,498.49932611897,497.6145538118,496.33004227594,497.5826210149,492.24491445065,496.752744544,494.74544018928,494.51068488806,494.8027043977,497.01749502498,496.01021982149,496.35934855122,495.72482609009,498.09624450772,497.5826210149,497.41662393405,496.82158728344,493.17159651101,496.61415082463,494.27181007713,495.95053337737,494.5681824582,498.50839557842,497.70709698743,495.58898201952,492.86219383426,492.1748133514,496.38893858811,493.79501060578,495.01028599554,492.66042630803,497.1142517386,495.83086898817,494.14580903273,492.86219383426,495.95664731188,495.95664731188,496.6495135077,496.6495135077,2.7067507292777,0.0012423459747203,6.5424235982187e-06,0.026220219380658,0.00052993646726338,-10.016580923893,-1.2248196576649,-4.1782258588211e-07,0.0058451572464716,-0.0024107754566251,-9.9336418505128e-05,0.00027358473112235,-0.00039313802861329,26.321634598586,0.002689226759858,0.0012311370618993,0.0054012191615551,0.00078093345758747,-3.7621160224493,-0.4335026632696,9.7084442990595e-08,0.0021849196315014,-0.0055760190087998,-0.00070894939972286,-6.454757045628e-05,0.00028431214593154,0.00019957024409466,-12.743093365007,-2.046683184038,-1.1408879945668e-06,0.0064874402231234,-0.001530479754895,0.0060688097705956,0.021662507645871,8.032572278156e-06,14.408219855518,0.0013980780040645,0.00018101030640154,0.094945236338231,22.501606088081,0.002822180965553,0.0030189939012618,0.00028130646715964,-0.33418442748699,-0.00011975497398167,3.3311788833023,-0.0067867806369864,-0.11151395458974,618.95388847649,618.95388847649,621.85134846262,621.85134846262,618.80647934694,621.83992004671,620.13305823156,621.0568410367,620.06122857185,623.44494371859,622.56017141142,621.27565987556,622.52823861452,617.19053205027,621.69836214361,619.6910577889,619.45630248767,619.74832199731,621.9631126246,620.95583742111,621.30496615084,620.6704436897,623.04186210734,622.52823861452,622.36224153367,621.76720488306,618.11721411063,621.55976842425,619.21742767675,620.89615097698,619.51380005782,623.45401317804,622.65271458705,620.53459961914,617.80781143388,617.12043095102,621.33455618773,618.7406282054,619.95590359516,617.60604390765,622.05986933822,620.77648658778,619.09142663235,617.80781143388,620.9022649115,620.9022649115,621.59513110732,621.59513110732,4598.206317021,0.0045293830102526,0.0038827837868688,890.811710101,-0.023662347011908,880.98357029629,-0.021858976462936,0
3.921875e-05,800318172.39606,799357709.08592,799391783.8226,0.062463104089687,0.64760436919854,-0.22576307227148,2088342252.6841,2.2877270060892e-06,1.1678085567859e-05,2.1593903638482e-06,1.0001798796193,493.61532426719,493.61532426719,496.84253968407,496.84253968407,493.43857912711,496.66401261737,495.01658493407,495.95486442079,494.73025694486,498.34642485512,497.56987689919,496.15907667754,497.46394432876,491.73790527321,496.54065450916,494.50793847637,494.19856534445,494.41106046897,496.76828367174,495.90109734124,496.24036060648,495.36508072724,497.89609403614,497.46394432876,497.37722518646,496.71248139477,492.74006858251,496.39449351414,494.02286651252,495.75937224306,494.1680052244,498.38652412221,497.64395862633,495.33972241348,492.46983407649,491.68447532783,496.15788536267,493.49582188302,494.73312563523,492.16973202243,496.93168976608,495.64973046844,493.79851166729,492.46983407649,495.72529403527,495.72529403527,496.34760812673,496.34760812673,2.8146990880568,0.0012231777412931,7.4183038579271e-06,0.02546644338469,0.00055130656792213,-10.856331399078,-1.2806682766107,-5.0784559135092e-07,0.0057445320279264,-0.0024854371411965,-0.00011522202322534,0.00028904888984807,-0.00038142032449763,27.276913279604,0.0027401041146269,0.001302935549846,0.0058541549338676,0.00081946168295583,-4.1252563084972,-0.44310368054638,6.7515051232948e-08,0.0021172196532402,-0.0053030728610105,-0.00038121864859095,-7.4956876798718e-05,0.00027422462415433,0.00020532277794143,-13.857509877873,-2.1559479653045,-7.2214826423116e-07,0.0063869131636309,-0.0016127265442336,0.0060164098279284,0.022696424991753,8.3325306407584e-06,14.896537053316,0.0014249377711983,0.00019216385919452,0.10391657421359,23.348444124048,0.0028682398306181,0.0032335412091234,0.00030649656098754,-0.38107960095538,-0.00011784344091502,3.6857130648464,-0.0070190075853067,-0.12014209174288,618.60104132219,618.60104132219,621.82825673907,621.82825673907,618.42429618212,621.64972967237,620.00230198907,620.94058147579,619.71597399986,623.33214191012,622.55559395419,621.14479373254,622.44966138376,616.72362232821,621.52637156417,619.49365553137,619.18428239946,619.39677752397,621.75400072674,620.88681439624,621.22607766148,620.35079778224,622.88181109115,622.44966138376,622.36294224146,621.69819844977,617.72578563751,621.38021056914,619.00858356752,620.74508929806,619.15372227941,623.37224117721,622.62967568133,620.32543946848,617.45555113149,616.67019238283,621.14360241767,618.48153893802,619.71884269023,617.15544907743,621.91740682108,620.63544752344,618.78422872229,617.45555113149,620.71101109027,620.71101109027,621.33332518174,621.33332518174,3443.2810858324,0.0045690874313456,0.0039139074929731,894.40515131382,-0.024053552055542,884.50096147505,-0.022254812818473,0
3.953125e-05,799739645.94232,798038525.76417,798773924.56728,0.062463104089687,0.64760436919854,-0.22576307227148,2088288771.0838,2.3096410245052e-06,1.1771215673488e-05,2.1878046728229e-06,1.000196993436,493.20837920947,493.20837920947,496.77502638175,496.77502638175,492.99660574336,496.41297332255,494.83809652436,495.78504559986,494.32929073351,498.179194752,497.52314187566,495.98094928228,497.33640246622,491.21292092752,496.31056531067,494.26170740179,493.87044012141,493.9990763203,496.49779427814,495.78618448744,496.11151278233,494.98844460375,497.67940949217,497.33640246622,497.33609376545,496.5979348433,492.29028721238,496.15313577094,493.76394684819,495.55147470014,493.75316967955,498.25259491426,497.57714366784,495.08099700962,492.06307227313,491.17663751996,495.90686679085,493.18627791478,494.43844185983,491.66169904545,496.734071696,495.46064055979,493.43636809776,492.06307227313,495.47362271092,495.47362271092,496.02623051133,496.02623051133,2.9651996132528,0.0012221899024554,8.3777571488806e-06,0.025252260527173,0.00057406671160345,-11.933633243636,-1.353844481073,-5.9311098411016e-07,0.0057537774052715,-0.0025945715944767,-0.00013315069385696,0.0003058021764091,-0.0003649488649415,28.879161202042,0.0027855084260653,0.0013793168294162,0.0063700958685963,0.00086714921599317,-4.544166066589,-0.4599261107845,4.1317714740305e-08,0.0020894330870802,-0.0053273956873427,-1.1623149674632e-05,-8.6705189967934e-05,0.0002684913508823,0.00021230453064443,-15.291633446425,-2.2930619405178,-2.7756009220105e-07,0.0064090951992963,-0.0017014813320508,0.0058978690909873,0.02388473698084,8.702759406961e-06,15.716689321487,0.0014492262021882,0.00020367857044439,0.11422041142984,24.719413510408,0.0029065320931887,0.0034705263759249,0.00033370131669645,-0.42924340988506,-0.00011555463576158,4.0927166421198,-0.0068368709639724,-0.12992832227617,618.23676266964,618.23676266964,621.80340984192,621.80340984192,618.02498920353,621.44135678272,619.86647998452,620.81342906002,619.35767419368,623.20757821217,622.55152533583,621.00933274245,622.36478592639,616.24130438769,621.33894877084,619.29009086196,618.89882358158,619.02745978046,621.52617773831,620.81456794761,621.1398962425,620.01682806391,622.70779295234,622.36478592639,622.36447722561,621.62631830347,617.31867067254,621.18151923111,618.79233030836,620.57985816031,618.78155313971,623.28097837443,622.605527128,620.10938046979,617.09145573329,616.20502098012,620.93525025102,618.21466137495,619.46682531999,616.69008250562,621.76245515617,620.48902401996,618.46475155792,617.09145573329,620.50200617109,620.50200617109,621.0546139715,621.0546139715,2305.5030278231,0.0046090447185048,0.0039450302045732,897.72099366723,-0.024439673634483,887.74180481182,-0.022643785636001,0
4.015625e-05,797948676.51236,794219410.91718,797322587.63443,0.062463104089687,0.64760436919854,-0.22576307227148,2088251348.7698,2.3672872937603e-06,1.1957571265075e-05,2.245381851726e-06,1.0002378766321,491.89054226088,491.89054226088,496.61365275794,496.61365275794,491.66915128731,495.84320342593,494.32807245081,495.38323337673,493.07534343516,497.79369160748,497.40216087697,495.44529412288,497.01691020123,489.48495016739,495.74976218587,493.50426827952,492.90681082439,492.80102166285,495.84937747105,495.48044016043,495.80721245238,493.85887279097,497.14855984812,497.01691020123,497.23189852086,496.27498684183,490.90459312551,495.61597397336,492.98834725727,495.05770061358,492.42025609817,497.95397245875,497.40533049302,494.27363798011,490.77779648881,489.51938281323,495.29927571613,492.21296002457,493.62969301103,489.9886830074,496.2484636525,494.904644329,492.3169103374,490.77779648881,494.87072656845,494.87072656845,495.15761664667,495.15761664667,3.2078078108542,0.0011368560679177,1.0488831324424e-05,0.023795498344903,0.0005812440622875,-14.065378439407,-1.4649628317611,-8.3689325793111e-07,0.0054193374841729,-0.0028809711545507,-0.0001743154679611,0.00032629888545923,-0.00026153381721526,35.695281493314,0.0027525371856071,0.0015115752450284,0.0073865708151436,0.00093315469757088,-5.3200922148681,-0.47859262300335,-3.1395564530035e-08,0.0019125897708908,-0.006072013769871,0.00059537695160275,-0.00011362364919911,0.00025093554307436,0.00020337846729336,-18.112528937192,-2.5226305264116,6.2342592190712e-07,0.0060250201979945,-0.0018638332988621,0.0057031269807488,0.025128017519473,8.2332601046912e-06,18.784649810813,0.0014445590724823,0.00022555606777414,0.13509883490554,29.615371457636,0.0028148802502636,0.003857366955099,0.00038422897724835,-0.50524257948259,-0.00010609737428802,4.9008495720378,-0.0075092563543395,-0.14671813065177,617.06091955488,617.06091955488,621.78403005193,621.78403005193,616.8395285813,621.01358071993,619.4984497448,620.55361067072,618.24572072916,622.96406890147,622.57253817096,620.61567141688,622.18728749522,614.65532746138,620.92013947987,618.67464557351,618.07718811838,617.97139895685,621.01975476505,620.65081745442,620.97758974637,619.02925008496,622.31893714212,622.18728749522,622.40227581485,621.44536413582,616.0749704195,620.78635126735,618.15872455126,620.22807790757,617.59063339217,623.12434975275,622.57570778702,619.4440152741,615.9481737828,614.68976010722,620.46965301012,617.38333731856,618.80007030503,615.1590603014,621.41884094649,620.07502162299,617.48728763139,615.9481737828,620.04110386244,620.04110386244,620.32799394067,620.32799394067,912.94980918477,0.0046909506393824,0.0040072727093933,902.66181126676,-0.025198772774117,892.53225594814,-0.02341122843402,0
4.03125e-05,797476337.81602,793194106.84039,796912540.79806,0.062463104089687,0.64760436919854,-0.22576307227148,2088258794.9621,2.3755303564215e-06,1.2004192201541e-05,2.2629223964183e-06,1.0002501669102,491.5180476332,491.5180476332,496.56967313019,496.56967313019,491.29574520012,495.67673766861,494.18996502758,495.26906457328,492.72435519538,497.68184545885,497.37012239443,495.30257499364,496.92702842905,488.96329341731,495.58938233142,493.29779377395,492.64147921342,492.466649556,495.66358125014,495.3974894098,495.7214928904,493.54542603326,496.99753728152,496.92702842905,497.20469553405,496.18923684784,490.51183099606,495.45777337232,492.7766854609,494.91671423322,492.04347502326,497.86636466885,497.35851066466,494.05543395702,490.4144610993,489.02650007347,495.12520758099,491.94428594391,493.40586472727,489.48946987881,496.11006365599,494.7536116012,492.00679546497,490.4144610993,494.69795695123,494.69795695123,494.91567176111,494.91567176111,3.4115453750727,0.0011776396744737,1.1063725290664e-05,0.024518760620515,0.00058211942477464,-15.167824310941,-1.5337346985935,-9.0769757384396e-07,0.0057200459800619,-0.0029677628697677,-0.00018604103192219,0.00033308963679317,-0.00020533934465106,48.971051804019,0.0027156152829058,0.0015956843593561,0.0079318265754062,0.00094966900227604,-5.7138223286203,-0.49999546095476,-5.1813232201675e-08,0.0020079501439171,-0.0062333609348785,0.0010195019375886,-0.0001212694445461,0.00025322547124734,0.00020057149585191,-19.556833665926,-2.6411848869636,9.0325486481496e-07,0.0063566625256519,-0.0019517748681515,0.0055403622102756,0.025883514076055,8.072817918059e-06,22.681329107611,0.0014353144018178,0.00023703121474412,0.14509022243475,36.063317360513,0.0027397514363304,0.0041429981025401,0.00041075513313521,-0.50499711655104,-0.00010236995967909,5.2867751424398,-0.0074906783595571,-0.15536705269431,616.74080498402,616.74080498402,621.792430481,621.792430481,616.51850255093,620.89949501942,619.4127223784,620.49182192409,617.9471125462,622.90460280966,622.59287974524,620.52533234445,622.14978577987,614.18605076813,620.81213968224,618.52055112477,617.86423656423,617.68940690681,620.88633860095,620.62024676062,620.94425024122,618.76818338408,622.22029463233,622.14978577987,622.42745288487,621.41199419865,615.73458834688,620.68053072313,617.99944281171,620.13947158403,617.26623237408,623.08912201966,622.58126801548,619.27819130783,615.63721845012,614.24925742428,620.3479649318,617.16704329472,618.62862207809,614.71222722963,621.33282100681,619.97636895202,617.22955281579,615.63721845012,619.92071430205,619.92071430205,620.13842911192,620.13842911192,3677.8410688669,0.0047122229127774,0.0040228326147182,903.37285332378,-0.025430775772676,893.18607710735,-0.02363912452506,0
4.0390625e-05,797185055.13506,792577637.4859,796688136.96386,0.062463104089687,0.64760436919854,-0.22576307227148,2088267963.823,2.3996330089704e-06,1.2027544661502e-05,2.2686724560747e-06,1.0002584020787,491.26505475828,491.26505475828,496.5457649,496.5457649,491.0558288424,495.58616534802,494.10649900761,495.20628561922,492.49434899151,497.62062432049,497.35195783659,495.21520027477,496.87591756479,488.50274008779,495.49916374145,493.16731272484,492.47749821588,492.25827363447,495.55995003033,495.34927261972,495.67459748732,493.34741268768,496.91250379598,496.87591756479,497.18958150236,496.13868939639,490.25259074029,495.37247030744,492.64463110006,494.83882034923,491.78887637909,497.81913848554,497.3317809257,493.9175825985,490.1716240764,488.64858171414,495.0276596477,491.7702622049,493.27288279071,489.09584807766,496.0319088702,494.66092782249,491.80755130496,490.1716240764,494.60179151194,494.60179151194,494.77239664664,494.77239664664,3.5641322153516,0.0011555648867935,1.1332280575287e-05,0.024090436231577,0.00056559966404986,-15.618167900142,-1.5448224494427,-9.5719280814343e-07,0.0056842065153707,-0.0030391099867077,-0.00019160267131629,0.00033822697779633,-0.00015014969388631,95.566539411537,0.0027198391087467,0.001638152574059,0.008207378939181,0.00094596944384619,-5.8683437660635,-0.50058470324725,-6.4841157967731e-08,0.0019917397254758,-0.0063898184579809,0.0012012720861024,-0.00012485343597183,0.00024793292545406,0.00018799873524506,-20.176637105558,-2.6690093337325,1.0343829906023e-06,0.0062983151732089,-0.0019991327298319,0.0055492714805272,0.026400807607908,7.3870807112118e-06,25.254341469582,0.0014636573798771,0.00024364575307909,0.14996817718632,40.451420653948,0.0026830402944516,0.0042744217093815,0.00042424694780625,-0.46630564607878,-0.0001044385782045,5.4613383805412,-0.00753403966862,-0.15826782597662,616.55941974,616.55941974,621.84012988172,621.84012988172,616.35019382412,620.88053032974,619.40086398934,620.50065060095,617.78871397323,622.91498930221,622.64632281832,620.50956525649,622.17028254651,613.79710506952,620.79352872317,618.46167770656,617.7718631976,617.5526386162,620.85431501206,620.64363760144,620.96896246904,618.6417776694,622.2068687777,622.17028254651,622.48394648408,621.43305437811,615.54695572202,620.66683528917,617.93899608179,620.13318533095,617.08324136081,623.11350346726,622.62614590743,619.21194758023,615.46598905812,613.94294669586,620.32202462943,617.06462718662,618.56724777243,614.39021305939,621.32627385192,619.95529280422,617.10191628669,615.46598905812,619.89615649367,619.89615649367,620.06676162837,620.06676162837,14681.993043022,0.0047238687927195,0.0040306121663074,903.22799104713,-0.025679497323749,892.94894352436,-0.023853290942025,0
4.041015625e-05,797130507.85788,792454767.62661,796633470.01928,0.062463104089687,0.64760436919854,-0.22576307227148,2088271835.0964,2.400333093631e-06,1.2033377994653e-05,2.2711179114669e-06,1.0002602483288,491.22290845041,491.22290845041,496.54003025798,496.54003025798,491.01223051445,495.56334207014,494.09009228601,495.19103599982,492.45409015929,497.60542545148,497.34801666994,495.19848961299,496.86431765318,488.44122425058,495.47800911163,493.14360888144,492.44595160326,492.21850147645,495.53521260416,495.33907103869,495.66317996331,493.31068035366,496.89264379301,496.86431765318,497.18622017716,496.128320348,490.20734855479,495.35055941835,492.62005241637,494.81998493794,491.74614908253,497.80703879007,497.32591300702,493.89252118142,490.1303671499,488.59188699918,495.0045967856,491.73976621291,493.24523257832,489.03803514789,496.01375982132,494.64314474754,491.77169739125,490.1303671499,494.57877441951,494.57877441951,494.74232876545,494.74232876545,3.6134631654625,0.0011572264158151,1.140400020758e-05,0.024117368767268,0.00056395747719158,-15.782547097714,-1.5524092654127,-9.7020118837811e-07,0.0057115505683676,-0.0030548555247114,-0.00019309912591268,0.00033966721064498,-0.00014126254570027,73.581881846963,0.0027302359231755,0.0016511769716169,0.0082923874214902,0.0009469284200297,-5.9259029862735,-0.50269361203598,-6.797797742254e-08,0.0020001660463409,-0.0064277254290325,0.0012661917923946,-0.00012582036559025,0.00024762283070039,0.00018643874648891,-20.395062442275,-2.6828106831259,1.0326717840476e-06,0.0063260762369219,-0.0020131258356445,0.0055331319178757,0.026566266173621,7.3011385291008e-06,24.908942187567,0.0014762375905715,0.00024545131514229,0.15148873912986,39.772110927462,0.0026805533962351,0.004318339096541,0.00042835886713161,-0.45823080976802,-0.00010612280253471,5.5196307841916,-0.007551372649403,-0.15944630403238,616.52563146557,616.52563146557,621.84275327315,621.84275327315,616.31495352961,620.86606508531,619.39281530117,620.49375901499,617.75681317446,622.90814846664,622.6507396851,620.50121262816,622.16704066834,613.74394726574,620.78073212679,618.4463318966,617.74867461843,617.52122449162,620.83793561933,620.64179405386,620.96590297848,618.61340336883,622.19536680817,622.16704066834,622.48894319232,621.43104336316,615.51007156995,620.65328243352,617.92277543153,620.12270795311,617.04887209769,623.10976180523,622.62863602218,619.19524419658,615.43309016506,613.89461001434,620.30731980076,617.04248922807,618.54795559348,614.34075816305,621.31648283648,619.94586776271,617.07442040641,615.43309016506,619.88149743467,619.88149743467,620.04505178061,620.04505178061,46238.237187437,0.0047266738868747,0.0040325569908365,903.24630926282,-0.025730272991196,892.94843593157,-0.023897923395743,0
4.044921875e-05,797000086.27813,792171148.84601,796520186.89568,0.062463104089687,0.64760436919854,-0.22576307227148,2088280012.8733,2.4053712397055e-06,1.204504457466e-05,2.2755037513721e-06,1.0002639864553,491.11562439571,491.11562439571,496.52808866679,496.52808866679,490.90670676517,495.51672782052,494.05204212594,495.15935261824,492.3544920734,497.57415981713,497.33938312312,495.15908231302,496.83936213457,488.26722679944,495.43320794882,493.08611624104,492.37177586341,492.1247452632,495.48331347939,495.31635570235,495.63950745843,493.22267720243,496.85051490602,496.83936213457,497.17896727652,496.1048112464,490.09539715352,495.30622420663,492.56129821061,494.78073932392,491.63791032957,497.78253670633,497.31310129332,493.83172076646,490.02667656757,488.43906456837,494.95595708832,491.66433848279,493.18289352443,488.87989491466,495.97513971392,494.60129079869,491.68423935559,490.02667656757,494.53054125319,494.53054125319,494.67491945215,494.67491945215,3.620939668404,0.0011385809075813,1.1546646871363e-05,0.023824531486017,0.00055871058550979,-15.933663011688,-1.5545420435374,-1.0016535274477e-06,0.0056442966340625,-0.0030790151932087,-0.0001960533187664,0.00034005636631313,-0.0001262386635941,75.943070228776,0.0027606142196183,0.0016632631862207,0.0083844811126948,0.00094660109590886,-5.976927990238,-0.50161866096702,-7.5329742659816e-08,0.0019734875818437,-0.0064769942364512,0.0013201233853586,-0.00012772661451395,0.00024457298837467,0.00018223365676438,-20.607609012854,-2.6913231719569,9.6518997309803e-07,0.0062430629321395,-0.0020269654319708,0.0055337367160587,0.026608277292001,7.0734622840532e-06,24.620460719792,0.0015090119708361,0.00024756375316876,0.15325241784205,39.588785108624,0.002684623961142,0.0043530626660858,0.00043273063361079,-0.45860019847887,-0.00011146169963149,5.5828758027269,-0.0075497270195494,-0.16030217068215,616.4443171979,616.4443171979,621.85678146899,621.85678146899,616.23539956737,620.84542062272,619.38073492814,620.48804542044,617.6831848756,622.90285261932,622.66807592531,620.48777511522,622.16805493677,613.59591960164,620.76190075102,618.41480904324,617.70046866561,617.4534380654,620.81200628158,620.64504850455,620.96820026062,618.55137000462,622.17920770822,622.16805493677,622.50766007872,621.43350404859,615.42408995571,620.63491700883,617.8899910128,620.10943212612,616.96660313177,623.11122950853,622.64179409551,619.16041356866,615.35536936976,613.76775737057,620.28464989052,616.99303128499,618.51158632662,614.20858771686,621.30383251612,619.92998360088,617.01293215779,615.35536936976,619.85923405539,619.85923405539,620.00361225435,620.00361225435,31776.078862309,0.0047322876789059,0.0040364464746923,903.27084113091,-0.025822755008916,892.93704555135,-0.023980070988667,0
4.048828125e-05,796883963.26808,791911926.94883,796407992.2933,0.062463104089687,0.64760436919854,-0.22576307227148,2088288823.3279,2.410945812229e-06,1.2056711707995e-05,2.2798271218215e-06,1.0002677797272,491.02229668632,491.02229668632,496.51631761649,496.51631761649,490.8127465219,495.47003264944,494.01742921964,495.12800347748,492.26682890797,497.54300413008,497.33121771682,495.12346797171,496.81535006101,488.1042544885,495.38952721168,493.03531032952,492.30449923293,492.03993675999,495.43237158466,495.29509303317,495.61605610683,493.1438531296,496.80949025709,496.81535006101,497.17203094412,496.08297904433,489.99693150862,495.26148614021,492.50888353882,494.74198560526,491.54361325108,497.75783460488,497.30093495548,493.77773931428,489.9364581214,488.30629598223,494.9083735525,491.59840232386,493.12474238441,488.74008752816,495.93763383481,494.5635680264,491.60664175882,489.9364581214,494.48311651842,494.48311651842,494.61186578732,494.61186578732,3.668875835065,0.0011213361937559,1.1690685691277e-05,0.023573019882079,0.00055400945601082,-16.109610892568,-1.5584188830887,-1.0367729766623e-06,0.0055872828614322,-0.003104382280753,-0.00019904192464369,0.00034119588027905,-0.00011409320252337,81.344081550414,0.0028133714598577,0.0016770377803402,0.0084880922355323,0.00094690177938111,-6.0365615736818,-0.50122800741519,-8.2748436299277e-08,0.0019503826423656,-0.0065301515209172,0.0013868474620159,-0.00012965121403408,0.0002417823665396,0.00017832420923274,-20.852406869905,-2.7024229936547,8.2237371914778e-07,0.0061712259749723,-0.0020428668255184,0.0055249768810316,0.026772646218971,6.8600689248175e-06,23.647474980772,0.0015591188063995,0.00024984585199947,0.15521495915567,37.388681608734,0.0027060296986265,0.0043948084637141,0.00043759282169783,-0.45045969112102,-0.00011990403552281,5.6541642582743,-0.0075512560039947,-0.16133826400656,616.37723062787,616.37723062787,621.87125155805,621.87125155805,616.16768046345,620.82496659099,619.37236316119,620.48293741903,617.62176284952,622.89793807163,622.68615165838,620.47840191326,622.17028400256,613.45918843005,620.74446115323,618.39024427107,617.65943317448,617.39487070154,620.78730552621,620.65002697472,620.97099004838,618.49878707115,622.16442419864,622.17028400256,622.52696488567,621.43791298588,615.35186545017,620.61642008176,617.86381748037,620.09691954681,616.89854719263,623.11276854643,622.65586889703,619.13267325583,615.29139206295,613.66122992378,620.26330749405,616.95333626541,618.47967632596,614.09502146971,621.29256777637,619.91850196795,616.96157570037,615.29139206295,619.83805045997,619.83805045997,619.96679972887,619.96679972887,35986.560249884,0.0047379219743794,0.0040403358130385,903.28620634985,-0.025919022905094,892.91228944387,-0.024061648774647,0
4.0498046875e-05,796858482.81984,791853229.8877,796380203.21192,0.062463104089687,0.64760436919854,-0.22576307227148,2088291142.7806,2.4122521842389e-06,1.2059627557958e-05,2.280883808857e-06,1.000268670627,491.00376208271,491.00376208271,496.51341030045,496.51341030045,490.79271389538,495.45831998923,494.00963298125,495.12024853969,492.24864631958,497.53523605217,497.32928024125,495.11560163685,496.80957055801,488.07957158641,495.37888316287,493.02440308642,492.28965108997,492.0212766899,495.41986269262,495.29011894182,495.61024543027,493.12681748192,496.79951038466,496.80957055801,497.17036463374,496.07796859774,489.976529628,495.25018436981,492.49745239849,494.73242040355,491.52473263006,497.75159957549,497.29804071562,493.76619613738,489.91809063377,488.28279168042,494.89674050246,491.58460175765,493.11134473425,488.71647072492,495.92852864324,494.55519951184,491.59024608242,489.91809063377,494.4714635636,494.4714635636,494.5972539125,494.5972539125,3.7059033078339,0.0011219411438268,1.1727874848271e-05,0.023588751553411,0.00055355904886773,-16.194406309119,-1.5623678675714,-1.0449557956195e-06,0.0055992607618433,-0.0031113188018092,-0.00019982526083933,0.00034158030255944,-0.00011124051217981,67.955007105719,0.0028243842860604,0.0016832671303551,0.0085302245080224,0.00094761854771471,-6.0661867175758,-0.50233151856934,-8.4445006771449e-08,0.0019538525560299,-0.0065473897695081,0.0014195359969197,-0.0001301565827706,0.00024165948785572,0.00017778715684162,-20.964728495296,-2.7095144239813,7.8552505071115e-07,0.006183329925006,-0.0020495341322817,0.0055139121195018,0.026845064654168,6.8305984964771e-06,24.002331642796,0.0015701978438595,0.00025069622058852,0.1559806368714,38.01858754913,0.0027100070774608,0.0044161392947113,0.00043960280874862,-0.44440146833741,-0.00012195539788444,5.6840315803247,-0.0075590041329204,-0.16193947676397,616.36159611904,616.36159611904,621.87124433678,621.87124433678,616.15054793171,620.81615402557,619.36746701758,620.47808257603,617.60648035592,622.8930700885,622.68711427758,620.47343567318,622.16740459434,613.43740562274,620.7367171992,618.38223712276,617.6474851263,617.37911072623,620.77769672895,620.64795297815,620.9680794666,618.48465151825,622.157344421,622.16740459434,622.52819867007,621.43580263408,615.33436366434,620.60801840615,617.85528643482,620.09025443989,616.88256666639,623.10943361183,622.65587475196,619.12403017371,615.2759246701,613.64062571675,620.25457453879,616.94243579398,618.46917877058,614.07430476126,621.28636267958,619.91303354818,616.94808011876,615.2759246701,619.82929759993,619.82929759993,619.95508794884,619.95508794884,66716.584124727,0.0047393042913286,0.0040413081747862,903.30373335926,-0.025941776766197,892.92145466868,-0.024081158836616,0
4.0517578125e-05,796806726.72741,791734287.54984,796324268.19056,0.062463104089687,0.64760436919854,-0.22576307227148,2088295828.5876,2.4147299473167e-06,1.2065457685113e-05,2.282934166348e-06,1.0002703634714,490.96604052716,490.96604052716,496.50755890827,496.50755890827,490.75206678673,495.43475946224,493.99384634186,495.1046339517,492.21169324767,497.5196035768,497.32537245678,495.09963883911,496.79791522785,488.02943643803,495.35743010779,493.00225446869,492.25954496786,491.98345771695,495.39466513067,495.28007283734,495.59854805755,493.09225048866,496.77939340281,496.79791522785,497.16700708436,496.06782587316,489.93509561598,495.22746051573,492.47426396851,494.71315700809,491.48631980414,497.73906349905,497.29220190042,493.74273812969,489.88075383939,488.23495078125,494.87329823054,491.55655399377,493.08424337764,488.66835941927,495.91017367287,494.53823475184,491.55693843312,489.88075383939,494.4479881859,494.4479881859,494.56771236775,494.56771236775,3.6662610436709,0.0011144243237785,1.1802247108948e-05,0.023478240986026,0.00055217550540576,-16.269590618284,-1.5641574534405,-1.061843218182e-06,0.0055700945100628,-0.0031197724239021,-0.0002013887489369,0.00034071641365092,-0.00010597732409576,59.8522303366,0.002838777345747,0.0016881024324575,0.0085708269478647,0.00094803869521586,-6.0917873404086,-0.50214874319527,-8.8405285647535e-08,0.0019416668276313,-0.0065654540514517,0.0014415132733932,-0.00013116733611171,0.00024050301210983,0.0001765562268098,-21.068497373561,-2.7145469288835,7.2507783826987e-07,0.0061483980772686,-0.0020546545364964,0.0055091931171242,0.0267167545038,6.7656918035594e-06,23.466085594694,0.0015863216088647,0.00025155867692784,0.15680024813127,37.048657539468,0.0027132456041167,0.0044297815953959,0.00044150953242526,-0.45190756480571,-0.00012516646158484,5.7146571768008,-0.0075590471223777,-0.16238642953547,616.32927478976,616.32927478976,621.87079317086,621.87079317086,616.11530104932,620.79799372483,619.35708060446,620.4678682143,617.57492751026,622.88283783939,622.68860671937,620.4628731017,622.16114949044,613.39267070062,620.72066437038,618.36548873128,617.62277923045,617.34669197954,620.75789939326,620.64330709993,620.96178232014,618.45548475125,622.1426276654,622.16114949044,622.53024134695,621.43106013575,615.29832987857,620.59069477832,617.8374982311,620.07639127068,616.84955406673,623.10229776165,622.65543616301,619.10597239228,615.24398810198,613.59818504384,620.23653249313,616.91978825636,618.44747764023,614.03159368186,621.27340793546,619.90146901443,616.92017269571,615.24398810198,619.81122244849,619.81122244849,619.93094663034,619.93094663034,20625.242232048,0.0047420262223783,0.004043252934119,903.35947155335,-0.025983273637936,892.96373781445,-0.024117331724688,0
